%nprocshared=4                                                                       
%mem=8GB                                                                             
#P pop=chelpg cam-b3lyp/gen scf=qc int=ultrafine charge td(nstates=10)               
                                                                                     
pNA CAM-B3LYP def2-TZVPD Single point - solvent def2-SV(P)                           
                                                                                     
0 1                                                                                  
 C       1.386341       0.000000       0.000000                                 
 C       0.000000       0.000000       0.000000                                 
 C      -0.712907       1.188984      -0.000000                                 
 C      -0.035635       2.384357       0.000131                                 
 C       1.365534       2.410943       0.000833                                 
 C       2.063239       1.195576       0.000133                                 
 H       1.918972      -0.938700       0.000854                                 
 H      -1.791888       1.163049       0.000837                                 
 H      -0.586620       3.315732      -0.002113                                 
 H       3.145392       1.202000      -0.002090                                 
 N      -0.713906      -1.260429       0.001744                                 
 O      -1.931758      -1.232720       0.002551                                 
 O      -0.063858      -2.290656       0.002518                                 
 N       2.037885       3.598040      -0.033161                                 
 H       1.540331       4.445798       0.174764                                 
 H       3.020819       3.607257       0.174736                                 
 C       5.916704       1.954286       2.796444                                 
 C       7.373749       2.058526       2.341404                                 
 C       7.745656       3.485135       1.932127                                 
 C       6.778336       4.053770       0.891960                                 
 C       5.321290       3.949523       1.346988                                 
 C       4.949385       2.522920       1.756277                                 
 H       5.800554       2.514285       3.721961                                 
 H       5.676904       0.905406       2.957437                                 
 H       8.017474       1.753786       3.163789                                 
 H       7.518566       1.402426       1.485712                                 
 H       7.717714       4.118873       2.815977                                 
 H       8.746973       3.474874       1.506680                                 
 H       6.894482       3.493756      -0.033557                                 
 H       7.018136       5.102649       0.730967                                 
 H       5.176477       4.605620       2.202697                                 
 H       4.677558       4.254264       0.524611                                 
 H       4.977334       1.889172       0.872424                                 
 H       3.948067       2.533180       2.181724                                 
 C       0.072005       6.316021      -1.451119                                 
 C       0.585210       7.705685      -1.833729                                 
 C      -0.077909       8.230450      -3.108856                                 
 C       0.039733       7.237215      -4.266696                                 
 C      -0.473475       5.847560      -3.884090                                 
 C       0.189636       5.322791      -2.608968                                 
 H      -0.975375       6.397864      -1.168338                                 
 H       0.660906       5.946059      -0.614537                                 
 H       0.366345       8.393453      -1.019690                                 
 H       1.658855       7.646400      -1.999315                                 
 H      -1.132470       8.404597      -2.905938                                 
 H       0.409346       9.159593      -3.396975                                 
 H       1.087103       7.155384      -4.549474                                 
 H      -0.549176       7.607172      -5.103283                                 
 H      -1.547118       5.906836      -3.718500                                 
 H      -0.254616       5.159780      -4.698130                                 
 H       1.244207       5.148638      -2.811877                                 
 H      -0.297609       4.393644      -2.320840                                 
 C      -5.364032       5.878189      -1.619848                                 
 C      -6.132657       4.665914      -2.149501                                 
 C      -5.698530       3.368276      -1.464876                                 
 C      -4.184082       3.161986      -1.534907                                 
 C      -3.415451       4.374260      -1.005261                                 
 C      -3.849578       5.671898      -1.689886                                 
 H      -5.644998       6.041532      -0.581553                                 
 H      -5.624955       6.745659      -2.222319                                 
 H      -7.193656       4.818761      -1.963969                                 
 H      -5.945530       4.575020      -3.217389                                 
 H      -5.995656       3.410646      -0.419147                                 
 H      -6.186573       2.532730      -1.962257                                 
 H      -3.903117       2.998644      -2.573202                                 
 H      -3.923153       2.294515      -0.932443                                 
 H      -3.602577       4.465154       0.062627                                 
 H      -2.354452       4.221413      -1.190793                                 
 H      -3.552453       5.629528      -2.735616                                 
 H      -3.361536       6.507444      -1.192505                                 
 C       3.829019      -3.822660      -2.782949                                 
 C       3.518464      -3.278415      -1.387141                                 
 C       4.326466      -2.018305      -1.070504                                 
 C       5.826797      -2.231135      -1.281934                                 
 C       6.137360      -2.775375      -2.677737                                 
 C       5.329350      -4.035490      -2.994378                                 
 H       3.471613      -3.108678      -3.521992                                 
 H       3.321882      -4.777448      -2.904622                                 
 H       2.459485      -3.034133      -1.336872                                 
 H       3.764655      -4.042837      -0.653167                                 
 H       3.993020      -1.217381      -1.726985                                 
 H       4.156771      -1.748792      -0.030175                                 
 H       6.184204      -2.945116      -0.542890                                 
 H       6.333941      -1.276342      -1.160256                                 
 H       5.891161      -2.010957      -3.411715                                 
 H       7.196332      -3.019661      -2.728010                                 
 H       5.662796      -4.836413      -2.337898                                 
 H       5.499053      -4.304997      -4.034702                                 
 C       1.942342       6.205220       4.345978                                 
 C       1.505193       7.326369       5.290903                                 
 C       0.058526       7.756342       5.039414                                 
 C      -0.186099       8.115365       3.572365                                 
 C       0.251041       6.994226       2.627443                                 
 C       1.697708       6.564254       2.878932                                 
 H       1.373944       5.308573       4.583885                                 
 H       3.006097       6.026276       4.487394                                 
 H       1.588916       6.970014       6.315394                                 
 H       2.155066       8.185002       5.135767                                 
 H      -0.600641       6.934463       5.310820                                 
 H      -0.155911       8.629881       5.651520                                 
 H       0.382297       9.012028       3.334466                                 
 H      -1.249853       8.294315       3.430961                                 
 H      -0.398830       6.135584       2.782585                                 
 H       0.167326       7.350586       1.602958                                 
 H       2.356877       7.386124       2.607531                                 
 H       1.912145       5.690714       2.266827                                 
 C       1.351824      -2.855410       2.883568                                 
 C       0.804033      -1.491508       3.308456                                 
 C       1.913729      -0.448234       3.453848                                 
 C       3.034790      -0.928639       4.377657                                 
 C       3.582584      -2.292549       3.952774                                 
 C       2.472881      -3.335829       3.807377                                 
 H       1.745813      -2.772353       1.872852                                 
 H       0.541358      -3.580505       2.914209                                 
 H       0.101081      -1.148268       2.552400                                 
 H       0.302587      -1.601675       4.267663                                 
 H       2.334754      -0.249128       2.470629                                 
 H       1.484417       0.460062       3.871449                                 
 H       2.640793      -1.011701       5.388369                                 
 H       3.845249      -0.203550       4.347012                                 
 H       4.084029      -2.182390       2.993553                                 
 H       4.285525      -2.635787       4.708820                                 
 H       2.051861      -3.534936       4.790588                                 
 H       2.902199      -4.244126       3.389768                                 
                                                                                
      -4.753356      -5.274301      -2.566412      -0.120000                    
      -4.261738      -4.884877      -3.961964      -0.120000                    
      -2.740352      -4.991807      -4.084177      -0.120000                    
      -2.020409      -4.209401      -2.983941      -0.120000                    
      -2.512021      -4.598827      -1.588396      -0.120000                    
      -4.033402      -4.491883      -1.466183      -0.120000                    
      -4.568146      -6.335787      -2.416191       0.060000                    
      -5.818872      -5.064318      -2.501968       0.060000                    
      -4.716825      -5.553111      -4.689953       0.060000                    
      -4.554894      -3.855887      -4.159299       0.060000                    
      -2.458188      -6.039701      -4.007156       0.060000                    
      -2.440079      -4.590177      -5.049704       0.060000                    
      -2.205606      -3.147912      -3.134165       0.060000                    
      -0.954889      -4.419371      -3.048384       0.060000                    
      -2.218874      -5.627807      -1.391058       0.060000                    
      -2.056937      -3.930584      -0.860411       0.060000                    
      -4.315580      -3.443992      -1.543200       0.060000                    
      -4.333675      -4.893513      -0.500655       0.060000                    
       0.301066       0.993174      -4.956501      -0.120000                    
       1.243842       0.688641      -6.122372      -0.120000                    
       1.517896      -0.810227      -6.261321      -0.120000                    
       2.009752      -1.427027      -4.950349      -0.120000                    
       1.066976      -1.122494      -3.784478      -0.120000                    
       0.792928       0.376373      -3.645536      -0.120000                    
      -0.680225       0.583647      -5.186762       0.060000                    
       0.239807       2.072173      -4.831588       0.060000                    
       0.785485       1.044998      -7.042447       0.060000                    
       2.188244       1.200071      -5.948563       0.060000                    
       0.595268      -1.306641      -6.554511       0.060000                    
       2.282333      -0.954826      -7.021877       0.060000                    
       2.991045      -1.017514      -4.720097       0.060000                    
       2.071009      -2.506032      -5.075274       0.060000                    
       0.122570      -1.633937      -3.958287       0.060000                    
       1.525342      -1.478861      -2.864406       0.060000                    
       1.715549       0.872782      -3.352352       0.060000                    
       0.028488       0.520965      -2.884968       0.060000                    
      -3.687885      -3.554287       3.976238      -0.120000                    
      -3.035245      -4.473078       5.011045      -0.120000                    
      -1.691200      -5.019643       4.525420      -0.120000                    
      -1.806452      -5.690448       3.155108      -0.120000                    
      -2.459093      -4.771656       2.120301      -0.120000                    
      -3.803137      -4.225091       2.605927      -0.120000                    
      -3.079726      -2.657927       3.874447       0.060000                    
      -4.686552      -3.295490       4.321722       0.060000                    
      -2.870297      -3.905926       5.924623       0.060000                    
      -3.702602      -5.310791       5.202190       0.060000                    
      -0.986809      -4.193922       4.450159       0.060000                    
      -1.335048      -5.755148       5.243659       0.060000                    
      -2.414613      -6.586813       3.256886       0.060000                    
      -0.807787      -5.949251       2.809612       0.060000                    
      -1.791742      -3.933948       1.929151       0.060000                    
      -2.624041      -5.338815       1.206711       0.060000                    
      -4.507536      -5.050818       2.681183       0.060000                    
      -4.159283      -3.489588       1.887680       0.060000                    
      -6.028977      -1.209798       0.483426      -0.120000                    
      -6.254882       0.268591       0.160600      -0.120000                    
      -6.026094       1.163087       1.380675      -0.120000                    
      -6.848843       0.707816       2.587675      -0.120000                    
      -6.622938      -0.770573       2.910500      -0.120000                    
      -6.851719      -1.665065       1.690430      -0.120000                    
      -4.974421      -1.360164       0.704853       0.060000                    
      -6.321476      -1.802965      -0.380399       0.060000                    
      -5.559390       0.563765      -0.622216       0.060000                    
      -7.280812       0.397796      -0.177727       0.060000                    
      -4.971426       1.127122       1.645284       0.060000                    
      -6.316636       2.180058       1.125534       0.060000                    
      -7.903399       0.858181       2.366247       0.060000                    
      -6.556337       1.300987       3.451504       0.060000                    
      -5.597008      -0.899779       3.248827       0.060000                    
      -7.318431      -1.065747       3.693315       0.060000                    
      -7.906394      -1.629104       1.425817       0.060000                    
      -6.561191      -2.682039       1.945574       0.060000                    
       2.163279      -7.304909      -1.282588      -0.120000                    
       1.591285      -8.694399      -0.994398      -0.120000                    
       0.072999      -8.661746      -0.807982      -0.120000                    
      -0.353443      -7.636774       0.244888      -0.120000                    
       0.218551      -6.247284      -0.043303      -0.120000                    
       1.736835      -6.279929      -0.229722      -0.120000                    
       1.802757      -6.975279      -2.254721       0.060000                    
       3.249260      -7.369602      -1.284959       0.060000                    
       1.824679      -9.347254      -1.832821       0.060000                    
       2.045468      -9.074972      -0.081958       0.060000                    
      -0.388240      -8.397571      -1.757235       0.060000                    
      -0.259248      -9.647215      -0.488374       0.060000                    
       0.007066      -7.966408       1.217024       0.060000                    
      -1.439423      -7.572083       0.247258       0.060000                    
      -0.235638      -5.866710      -0.955735       0.060000                    
      -0.014843      -5.594429       0.795121       0.060000                    
       2.198076      -6.544113       0.719535       0.060000                    
       2.069081      -5.294459      -0.549331       0.060000                    
      -3.075430       2.795648       4.092262      -0.120000                    
      -4.199819       2.261816       4.982020      -0.120000                    
      -3.690853       1.854184       6.366141      -0.120000                    
      -2.515597       0.878234       6.280325      -0.120000                    
      -1.391206       1.412057       5.390572      -0.120000                    
      -1.900174       1.819698       4.006447      -0.120000                    
      -2.717822       3.734583       4.509617       0.060000                    
      -3.469867       2.953758       3.090777       0.060000                    
      -4.948028       3.042350       5.102695       0.060000                    
      -4.638541       1.389506       4.502150       0.060000                    
      -3.362978       2.747764       6.893083       0.060000                    
      -4.503019       1.373551       6.907556       0.060000                    
      -2.873196      -0.060712       5.862967       0.060000                    
      -2.121160       0.720123       7.281810       0.060000                    
      -0.952487       2.284375       5.870438       0.060000                    
      -0.642994       0.631530       5.269885       0.060000                    
      -2.228050       0.926118       3.479505       0.060000                    
      -1.087999       2.300320       3.465028       0.060000                    
       5.000622       4.107830      -4.803118      -0.120000                    
       6.141810       4.611195      -5.689214      -0.120000                    
       6.547808       3.578429      -6.742567      -0.120000                    
       6.863920       2.217449      -6.119056      -0.120000                    
       5.722718       1.714080      -5.232957      -0.120000                    
       5.316726       2.746845      -4.179612      -0.120000                    
       4.104148       4.011511      -5.412003       0.060000                    
       4.838059       4.827304      -4.003369       0.060000                    
       5.814455       5.515807      -6.197323       0.060000                    
       7.003486       4.822842      -5.059603       0.060000                    
       5.725951       3.456645      -7.444950       0.060000                    
       7.435112       3.938812      -7.258862       0.060000                    
       7.760380       2.313763      -5.510169       0.060000                    
       7.026481       1.497974      -6.918805       0.060000                    
       4.861055       1.502437      -5.862571       0.060000                    
       6.050073       0.809468      -4.724847       0.060000                    
       6.138590       2.868633      -3.477224       0.060000                    
       4.429416       2.386463      -3.663309       0.060000                    
      -6.645226      -1.056808      -5.782107      -0.120000                    
      -7.236137      -1.376382      -4.407467      -0.120000                    
      -6.663794      -0.472700      -3.313483      -0.120000                    
      -5.133949      -0.489984      -3.297736      -0.120000                    
      -4.543036      -0.170419      -4.672371      -0.120000                    
      -5.115378      -1.074100      -5.766356      -0.120000                    
      -6.978626      -0.065550      -6.081976       0.060000                    
      -6.994074      -1.803222      -6.492568       0.060000                    
      -8.313508      -1.231315      -4.449878       0.060000                    
      -7.003999      -2.410333      -4.161054       0.060000                    
      -6.998128       0.546667      -3.494367       0.060000                    
      -7.025357      -0.822834      -2.348922       0.060000                    
      -4.800541      -1.481252      -2.997870       0.060000                    
      -4.785102       0.256430      -2.587275       0.060000                    
      -4.775174       0.863532      -4.918785       0.060000                    
      -3.465667      -0.315477      -4.629964       0.060000                    
      -4.781044      -2.093467      -5.585472       0.060000                    
      -4.753819      -0.723958      -6.730920       0.060000                    
       5.700130       7.637358      -2.435625      -0.120000                    
       4.696538       8.266609      -3.404017      -0.120000                    
       4.876243       9.782292      -3.510799      -0.120000                    
       4.852008      10.460510      -2.139540      -0.120000                    
       5.855593       9.831262      -1.171141      -0.120000                    
       5.675889       8.315579      -1.064359      -0.120000                    
       6.698678       7.738046      -2.855686       0.060000                    
       5.448518       6.586614      -2.308306       0.060000                    
       4.842700       7.828919      -4.389234       0.060000                    
       3.690515       8.060244      -3.044868       0.060000                    
       5.835039       9.986351      -3.982721       0.060000                    
       4.065540      10.186893      -4.113111       0.060000                    
       3.853468      10.359827      -1.719474       0.060000                    
       5.103614      11.511257      -2.266851       0.060000                    
       6.861623      10.037626      -1.530298       0.060000                    
       5.709445      10.268954      -0.185928       0.060000                    
       4.717099       8.111519      -0.592445       0.060000                    
       6.486591       7.910978      -0.462046       0.060000                    
       7.501033      -5.956827       3.157005      -0.120000                    
       6.622331      -4.738549       2.866237      -0.120000                    
       5.499231      -5.064331       1.879597      -0.120000                    
       6.031413      -5.706367       0.596800      -0.120000                    
       6.910120      -6.924646       0.887560      -0.120000                    
       8.033215      -6.598863       1.874208      -0.120000                    
       6.907328      -6.693524       3.694063       0.060000                    
       8.346528      -5.638962       3.763318       0.060000                    
       6.177721      -4.399808       3.799611       0.060000                    
       7.244511      -3.955224       2.438494       0.060000                    
       4.809029      -5.757977       2.355124       0.060000                    
       4.986465      -4.140761       1.619243       0.060000                    
       6.625124      -4.969671       0.059734       0.060000                    
       5.185909      -6.024237      -0.009518       0.060000                    
       6.287933      -7.707976       1.315298       0.060000                    
       7.354730      -7.263387      -0.045814       0.060000                    
       8.723416      -5.905217       1.398681       0.060000                    
       8.545986      -7.522435       2.134554       0.060000                    
      -6.838594       6.233286       4.850657      -0.120000                    
      -6.882682       6.037949       3.333843      -0.120000                    
      -5.570993       5.467015       2.791148      -0.120000                    
      -4.361078       6.295792       3.227312      -0.120000                    
      -4.316984       6.491134       4.744131      -0.120000                    
      -5.628680       7.062063       5.286821      -0.120000                    
      -6.780087       5.256145       5.325512       0.060000                    
      -7.744172       6.750084       5.161158       0.060000                    
      -7.687873       5.346164       3.095625       0.060000                    
      -7.062663       7.002645       2.864104       0.060000                    
      -5.451438       4.452975       3.166696       0.060000                    
      -5.616593       5.463887       1.704107       0.060000                    
      -4.419585       7.272933       2.752456       0.060000                    
      -3.455501       5.778994       2.916811       0.060000                    
      -4.137010       5.526433       5.213864       0.060000                    
      -3.511806       7.182916       4.982352       0.060000                    
      -5.748235       8.076103       4.911273       0.060000                    
      -5.583082       7.065200       6.373857       0.060000                    
       2.257230       3.636237       8.270363      -0.120000                    
       3.519168       4.400206       8.676250      -0.120000                    
       4.396091       4.740488       7.469504      -0.120000                    
       4.720290       3.503524       6.629393      -0.120000                    
       3.458346       2.739557       6.223513      -0.120000                    
       2.581430       2.399278       7.430264      -0.120000                    
       1.623422       4.298279       7.684144       0.060000                    
       1.738406       3.317877       9.172071       0.060000                    
       3.223098       5.326907       9.163201       0.060000                    
       4.095114       3.781352       9.361034       0.060000                    
       3.865391       5.455757       6.844719       0.060000                    
       5.328585       5.171493       7.827886       0.060000                    
       5.354097       2.841480       7.215611       0.060000                    
       5.239119       3.821897       5.727684       0.060000                    
       2.882406       3.358408       5.538721       0.060000                    
       3.754419       1.812862       5.736550       0.060000                    
       3.112119       1.684013       8.055040       0.060000                    
       1.648933       1.968282       7.071877       0.060000                    
      -4.776081      10.135096       1.561083      -0.120000                    
      -3.302971      10.143094       1.974290      -0.120000                    
      -2.382121      10.502362       0.806391      -0.120000                    
      -2.630260       9.613276      -0.413835      -0.120000                    
      -4.103376       9.605278      -0.827034      -0.120000                    
      -5.024226       9.246011       0.340864      -0.120000                    
      -5.074097      11.152434       1.316357       0.060000                    
      -5.368266       9.758013       2.392164       0.060000                    
      -3.167182      10.879625       2.763380       0.060000                    
      -3.037364       9.151275       2.334042       0.060000                    
      -2.564705      11.537409       0.525337       0.060000                    
      -1.349888      10.374519       1.125521       0.060000                    
      -2.332257       8.595934      -0.169105       0.060000                    
      -2.038072       9.990350      -1.244913       0.060000                    
      -4.368978      10.597097      -1.186794       0.060000                    
      -4.239164       8.868749      -1.616126       0.060000                    
      -4.841650       8.210960       0.621914       0.060000                    
      -6.056458       9.373855       0.021735       0.060000                    
       9.381492      -2.173898       1.032375      -0.120000                    
      10.636710      -2.740037       1.699305      -0.120000                    
      11.459203      -1.650760       2.390683      -0.120000                    