%nprocshared=4                                                                       
%mem=8GB                                                                             
#P pop=chelpg cam-b3lyp/gen scf=qc int=ultrafine charge td(nstates=10)               
                                                                                     
pNA CAM-B3LYP def2-TZVPD Single point - solvent def2-SV(P)                           
                                                                                     
0 1                                                                                  
 C       1.386341       0.000000       0.000000                                 
 C       0.000000       0.000000       0.000000                                 
 C      -0.712907       1.188984      -0.000000                                 
 C      -0.035635       2.384357       0.000131                                 
 C       1.365534       2.410943       0.000833                                 
 C       2.063239       1.195576       0.000133                                 
 H       1.918972      -0.938700       0.000854                                 
 H      -1.791888       1.163049       0.000837                                 
 H      -0.586620       3.315732      -0.002113                                 
 H       3.145392       1.202000      -0.002090                                 
 N      -0.713906      -1.260429       0.001744                                 
 O      -1.931758      -1.232720       0.002551                                 
 O      -0.063858      -2.290656       0.002518                                 
 N       2.037885       3.598040      -0.033161                                 
 H       1.540331       4.445798       0.174764                                 
 H       3.020819       3.607257       0.174736                                 
 C      -2.868452       5.317385       0.074579                                 
 C      -2.136870       6.520235       0.673590                                 
 C      -2.527256       7.829584      -0.015045                                 
 C      -2.355337       7.752198      -1.533440                                 
 C      -3.086919       6.549348      -2.132450                                 
 C      -2.696533       5.239999      -1.443815                                 
 H      -3.928898       5.407732       0.300219                                 
 H      -2.464569       4.409202       0.516909                                 
 H      -2.392515       6.592600       1.728609                                 
 H      -1.065869       6.370565       0.554256                                 
 H      -3.571266       8.040997       0.206324                                 
 H      -1.891847       8.626040       0.366634                                 
 H      -1.294891       7.661850      -1.759079                                 
 H      -2.759221       8.660381      -1.975770                                 
 H      -4.157912       6.699017      -2.013109                                 
 H      -2.831267       6.476984      -3.187463                                 
 H      -1.652524       5.028586      -1.665184                                 
 H      -3.331942       4.443543      -1.825494                                 
 C      -0.677532       1.393253      -4.642440                                 
 C      -1.158327       2.815868      -4.349464                                 
 C      -0.013589       3.829727      -4.401070                                 
 C       1.154007       3.422441      -3.500089                                 
 C       1.634807       1.999820      -3.793071                                 
 C       0.490076       0.985961      -3.741459                                 
 H      -0.350714       1.343231      -5.678955                                 
 H      -1.503324       0.705460      -4.473577                                 
 H      -1.901274       3.092174      -5.094591                                 
 H      -1.596541       2.836685      -3.353867                                 
 H       0.345177       3.897169      -5.425937                                 
 H      -0.388995       4.795175      -4.068419                                 
 H       0.827193       3.472457      -2.463579                                 
 H       1.979804       4.110229      -3.668958                                 
 H       2.073021       1.979003      -4.788669                                 
 H       2.377749       1.723521      -3.047938                                 
 H       0.131298       0.918526      -2.716592                                 
 H       0.865475       0.020513      -4.074117                                 
 C       7.474159       2.263296      -0.958273                                 
 C       6.851456       1.762911      -2.263181                                 
 C       6.442222       2.915892      -3.181966                                 
 C       5.542072       3.926237      -2.467873                                 
 C       6.164780       4.426630      -1.162970                                 
 C       6.574014       3.273649      -0.244186                                 
 H       8.422773       2.744108      -1.187667                                 
 H       7.632126       1.412025      -0.299555                                 
 H       7.581823       1.146500      -2.783031                                 
 H       5.965903       1.177908      -2.023939                                 
 H       7.341085       3.428099      -3.518542                                 
 H       5.900045       2.507260      -4.032127                                 
 H       4.593455       3.445432      -2.238490                                 
 H       5.384110       4.777516      -3.126596                                 
 H       7.050325       5.011633      -1.402219                                 
 H       5.434402       5.043032      -0.643122                                 
 H       5.675144       2.761441       0.092384                                 
 H       7.116179       3.682273       0.605975                                 
 C      -6.481995       1.256675      -3.704901                                 
 C      -5.930170       1.833847      -2.399817                                 
 C      -4.406965       1.714024      -2.319053                                 
 C      -3.931279       0.279538      -2.557657                                 
 C      -4.483105      -0.297633      -3.862741                                 
 C      -6.006309      -0.177811      -3.943505                                 
 H      -6.141918       1.877660      -4.530959                                 
 H      -7.568743       1.258619      -3.653849                                 
 H      -6.199570       2.886395      -2.343763                                 
 H      -6.366519       1.287722      -1.566172                                 
 H      -3.966889       2.357071      -3.078280                                 
 H      -4.085770       2.026413      -1.327599                                 
 H      -4.271356      -0.341447      -1.731600                                 
 H      -2.844535       0.277601      -2.608703                                 
 H      -4.046755       0.248492      -4.696386                                 
 H      -4.213709      -1.350174      -3.918789                                 
 H      -6.446389      -0.820851      -3.184272                                 
 H      -6.327503      -0.490200      -4.934958                                 
 C      -4.260986      -2.208088       6.078139                                 
 C      -2.829776      -2.322981       5.549597                                 
 C      -2.692408      -1.749224       4.137892                                 
 C      -3.710916      -2.356110       3.170749                                 
 C      -5.142131      -2.241211       3.699298                                 
 C      -5.279491      -2.814968       5.111010                                 
 H      -4.497217      -1.155077       6.216121                                 
 H      -4.324736      -2.736598       7.026927                                 
 H      -2.168244      -1.772010       6.214730                                 
 H      -2.551098      -3.374387       5.526202                                 
 H      -2.852978      -0.674112       4.182405                                 
 H      -1.691714      -1.966344       3.770241                                 
 H      -3.474682      -3.409116       3.032780                                 
 H      -3.647163      -1.827594       2.221974                                 
 H      -5.420797      -1.189812       3.722694                                 
 H      -5.803656      -2.792182       3.034170                                 
 H      -5.118926      -3.890087       5.066501                                 
 H      -6.280193      -2.597848       5.478654                                 
 C       1.828660       3.064425       4.020430                                 
 C       1.234583       4.405029       4.457117                                 
 C       0.709354       4.358478       5.893409                                 
 C      -0.267840       3.201080       6.109240                                 
 C       0.326250       1.860469       5.672554                                 
 C       0.851479       1.907021       4.236261                                 
 H       2.726480       2.875022       4.605000                                 
 H       2.072629       3.120598       2.961655                                 
 H       2.009900       5.165680       4.394965                                 
 H       0.409152       4.652421       3.792948                                 
 H       1.553206       4.231479       6.568258                                 
 H       0.193829       5.292827       6.105535                                 
 H      -1.165655       3.390476       5.524664                                 
 H      -0.511804       3.144900       7.168009                                 
 H       1.151673       1.613077       6.336716                                 
 H      -0.449066       1.099818       5.734705                                 
 H       0.007619       2.034019       3.561407                                 
 H       1.366996       0.972671       4.024130                                 
                                                                                
      -1.351115      -6.131219       3.994018      -0.120000                    
      -0.937033      -5.151704       2.894005      -0.120000                    
       0.204217      -5.702138       2.036334      -0.120000                    
       1.396388      -6.147447       2.885720      -0.120000                    
       0.982322      -7.126961       3.985729      -0.120000                    
      -0.158935      -6.576528       4.843393      -0.120000                    
      -1.793944      -7.009434       3.528913       0.060000                    
      -2.075401      -5.641286       4.641237       0.060000                    
      -1.795789      -4.966110       2.252415       0.060000                    
      -0.606581      -4.225538       3.359507       0.060000                    
      -0.163686      -6.559637       1.476866       0.060000                    
       0.535128      -4.920976       1.355180       0.060000                    
       1.839225      -5.269231       3.350814       0.060000                    
       2.120683      -6.637380       2.238491       0.060000                    
       0.651863      -8.053128       3.520221       0.060000                    
       1.841074      -7.312562       4.627325       0.060000                    
       0.208975      -5.719028       5.402867       0.060000                    
      -0.489839      -7.357689       5.524554       0.060000                    
      -4.355224      -6.343150      -2.299259      -0.120000                    
      -3.468469      -7.582324      -2.161357      -0.120000                    
      -2.390278      -7.399267      -1.091288      -0.120000                    
      -1.568403      -6.128632      -1.317028      -0.120000                    
      -2.455158      -4.889458      -1.454930      -0.120000                    
      -3.533342      -5.072515      -2.524993      -0.120000                    
      -4.933031      -6.225575      -1.384947       0.060000                    
      -5.019013      -6.483505      -3.149677       0.060000                    
      -4.093778      -8.428204      -1.883722       0.060000                    
      -2.982177      -7.769919      -3.116327       0.060000                    
      -2.873394      -7.332655      -0.118775       0.060000                    
      -1.720849      -8.256395      -1.122113       0.060000                    
      -0.990596      -6.246206      -2.231340       0.060000                    
      -0.904614      -5.988276      -0.466610       0.060000                    
      -2.941450      -4.701862      -0.499960       0.060000                    
      -1.829849      -4.043579      -1.732565       0.060000                    
      -3.050229      -5.139132      -3.497518       0.060000                    
      -4.202778      -4.215386      -2.494174       0.060000                    
       4.884411       7.325347       4.618985      -0.120000                    
       4.810182       7.518419       3.103023      -0.120000                    
       4.520119       6.206155       2.371690      -0.120000                    
       5.505783       5.102688       2.761332      -0.120000                    
       5.580009       4.909609       4.277299      -0.120000                    
       5.870071       6.221872       5.008633      -0.120000                    
       3.896106       7.053350       4.983641       0.060000                    
       5.210384       8.258821       5.072860       0.060000                    
       4.012316       8.223874       2.881042       0.060000                    
       5.764979       7.906766       2.754852       0.060000                    
       3.514256       5.880267       2.628005       0.060000                    
       4.598885       6.380317       1.300652       0.060000                    
       6.494085       5.374678       2.396664       0.060000                    
       5.179810       4.169215       2.307456       0.060000                    
       4.625215       4.521270       4.625465       0.060000                    
       6.377878       4.204161       4.499275       0.060000                    
       6.875938       6.547769       4.752313       0.060000                    
       5.791306       6.047710       6.079670       0.060000                    
       3.457466      -6.427351      -3.683195      -0.120000                    
       4.586858      -5.407799      -3.844120      -0.120000                    
       4.353773      -4.155763      -2.996114      -0.120000                    
       2.979805      -3.534818      -3.256123      -0.120000                    
       1.850418      -4.554363      -3.095202      -0.120000                    
       2.083492      -5.806406      -3.943209      -0.120000                    
       3.478346      -6.811651      -2.665574       0.060000                    
       3.614225      -7.235119      -4.394886       0.060000                    
       5.520348      -5.870720      -3.531320       0.060000                    
       4.643361      -5.113701      -4.890044       0.060000                    
       4.417912      -4.430577      -1.945420       0.060000                    
       5.118868      -3.422221      -3.241660       0.060000                    
       2.958925      -3.150517      -4.273744       0.060000                    
       2.823046      -2.727050      -2.544431       0.060000                    
       1.793911      -4.848468      -2.049273       0.060000                    
       0.916916      -4.091449      -3.408004       0.060000                    
       2.019356      -5.531584      -4.993909       0.060000                    
       1.318404      -6.539948      -3.697658       0.060000                    
       2.433209       7.070100      -3.399965      -0.120000                    
       3.597050       7.299470      -2.433654      -0.120000                    
       3.303239       8.424809      -1.439524      -0.120000                    
       2.879867       9.715604      -2.143453      -0.120000                    
       1.716009       9.486233      -3.109760      -0.120000                    
       2.009837       8.360894      -4.103893      -0.120000                    
       1.584664       6.686496      -2.837400       0.060000                    
       2.743604       6.349075      -4.153174       0.060000                    
       3.773195       6.381323      -1.877335       0.060000                    
       4.480153       7.566694      -3.010187       0.060000                    
       2.496642       8.106470      -0.782471       0.060000                    
       4.204058       8.622883      -0.862473       0.060000                    
       3.728412      10.099208      -2.706017       0.060000                    
       2.569468      10.436621      -1.390238       0.060000                    
       0.832923       9.219009      -2.533230       0.060000                    
       1.539881      10.404381      -3.666083       0.060000                    
       2.816430       8.679225      -4.760941       0.060000                    
       1.109014       8.162812      -4.680939       0.060000                    
       7.020620       0.380735       2.786126      -0.120000                    
       6.409853       1.518793       3.606289      -0.120000                    
       6.937395       1.537436       5.042371      -0.120000                    
       6.771906       0.181488       5.731571      -0.120000                    
       7.382677      -0.956562       4.911403      -0.120000                    
       6.855139      -0.975212       3.475314      -0.120000                    
       8.082708       0.577192       2.655866       0.060000                    
       6.522614       0.342552       1.819627       0.060000                    
       6.662208       2.464263       3.130921       0.060000                    
       5.330279       1.386758       3.634184       0.060000                    
       7.995465       1.789680       5.020816       0.060000                    
       6.382872       2.284242       5.606752       0.060000                    
       5.709814      -0.014961       5.861818       0.060000                    
       7.269908       0.219679       6.698058       0.060000                    
       8.462243      -0.824527       4.883501       0.060000                    
       7.130322      -1.902032       5.386771       0.060000                    
       5.797065      -1.227449       3.496876       0.060000                    
       7.409658      -1.722011       2.910939       0.060000                    
       2.640801      -2.088731       4.600825      -0.120000                    
       1.177502      -2.392515       4.928535      -0.120000                    
       0.848745      -2.112088       6.396309      -0.120000                    
       1.809736      -2.829759       7.346290      -0.120000                    
       3.273035      -2.525975       7.018579      -0.120000                    
       3.601775      -2.806403       5.550810      -0.120000                    
       2.801369      -1.016267       4.688694       0.060000                    
       2.845315      -2.418876       3.584593       0.060000                    
       0.544049      -1.765694       4.304486       0.060000                    
       0.986486      -3.443919       4.724235       0.060000                    
       0.922903      -1.040762       6.570648       0.060000                    
      -0.162777      -2.458109       6.598227       0.060000                    
       1.649163      -3.902231       7.258426       0.060000                    
       1.605217      -2.499608       8.362527       0.060000                    
       3.464046      -1.474565       7.222886       0.060000                    
       3.906483      -3.152789       7.642634       0.060000                    
       3.527617      -3.877728       5.376471       0.060000                    
       4.613308      -2.460375       5.348894       0.060000                    
      -6.417140       3.200190       4.607294      -0.120000                    
      -5.725605       4.558420       4.473316      -0.120000                    
      -4.352942       4.439510       3.808007      -0.120000                    
      -3.463601       3.410200       4.508427      -0.120000                    
      -4.155118       2.051986       4.642384      -0.120000                    
      -5.527765       2.170882       5.307706      -0.120000                    
      -6.656899       2.832393       3.611839       0.060000                    
      -7.326087       3.328867       5.191088       0.060000                    
      -6.351264       5.208703       3.865713       0.060000                    
      -5.594799       4.981506       5.467083       0.060000                    
      -4.493234       4.131499       2.774048       0.060000                    
      -3.861359       5.409218       3.849468       0.060000                    
      -3.223812       3.777992       5.503879       0.060000                    
      -2.554625       3.281518       3.924630       0.060000                    
      -4.285903       1.628880       3.648624       0.060000                    
      -3.529444       1.401690       5.250000       0.060000                    
      -5.387473       2.478879       6.341664       0.060000                    
      -6.019347       1.201174       5.266245       0.060000                    
       0.155772       8.448118       5.246383      -0.120000                    
       0.546908       8.535206       3.769803      -0.120000                    
       1.489115       9.708945       3.494806      -0.120000                    
       0.924760      11.031680       4.017156      -0.120000                    
       0.533629      10.944586       5.493730      -0.120000                    
      -0.408584       9.770853       5.768733      -0.120000                    
       1.040795       8.194630       5.826155       0.060000                    
      -0.603382       7.677201       5.360101       0.060000                    
       1.049720       7.612417       3.488300       0.060000                    
      -0.356326       8.668430       3.178117       0.060000                    
       2.438409       9.516182       3.990109       0.060000                    
       1.634657       9.793407       2.419870       0.060000                    
       0.039729      11.285168       3.437378       0.060000                    
       1.683905      11.802597       3.903431       0.060000                    
       1.436856      10.811359       6.085410       0.060000                    
       0.030809      11.867374       5.775227       0.060000                    
      -1.357884       9.963615       5.273423       0.060000                    
      -0.554127       9.686383       6.843657       0.060000                    
       7.420296      -3.799183       0.116223      -0.120000                    
       7.655292      -2.323006      -0.210044      -0.120000                    
       7.665014      -2.063860      -1.717939      -0.120000                    
       8.650753      -2.976645      -2.450156      -0.120000                    
       8.415756      -4.452821      -2.123888      -0.120000                    
       8.406043      -4.711967      -0.615988      -0.120000                    
       6.409627      -4.065470      -0.185972       0.060000                    
       7.543867      -3.942444       1.187597       0.060000                    
       6.856349      -1.736278       0.238399       0.060000                    
       8.618018      -2.025246       0.200080       0.060000                    
       6.666140      -2.246440      -2.108520       0.060000                    
       7.954606      -1.029504      -1.891063       0.060000                    
       9.661417      -2.710365      -2.147956       0.060000                    
       8.527185      -2.833390      -3.521518       0.060000                    
       7.453038      -4.750581      -2.534006       0.060000                    
       9.214703      -5.039557      -2.572320       0.060000                    
       9.404908      -4.529387      -0.225413       0.060000                    
       8.116444      -5.746323      -0.442871       0.060000                    
      -1.600084      -2.700024      -5.367981      -0.120000                    
      -1.228624      -4.168688      -5.582407      -0.120000                    
      -0.307969      -4.356604      -6.789915      -0.120000                    
      -0.885962      -3.720969      -8.055962      -0.120000                    
      -1.257414      -2.252306      -7.841529      -0.120000                    
      -2.178066      -2.064396      -6.634027      -0.120000                    
      -0.704154      -2.152971      -5.082171       0.060000                    
      -2.345894      -2.641754      -4.578105       0.060000                    
      -0.715300      -4.530771      -4.694155       0.060000                    
      -2.141063      -4.737377      -5.749087       0.060000                    
       0.650196      -3.889418      -6.572571       0.060000                    
      -0.177039      -5.422464      -6.964709       0.060000                    
      -1.781889      -4.268030      -8.341760       0.060000                    
      -0.140157      -3.779246      -8.845831       0.060000                    
      -0.344984      -1.683616      -7.674855       0.060000                    
      -1.770743      -1.890229      -8.729775       0.060000                    
      -3.136247      -2.531583      -6.851366       0.060000                    
      -2.309000      -0.998529      -6.459226       0.060000                    
       4.440755       0.621120      -6.152008      -0.120000                    
       3.271821       0.178326      -7.034287      -0.120000                    
       2.859876      -1.268703      -6.756071      -0.120000                    
       4.045862      -2.230713      -6.850716      -0.120000                    
       5.214787      -1.787918      -5.968443      -0.120000                    
       5.626728      -0.340883      -6.246654      -0.120000                    
       4.102710       0.655610      -5.118464       0.060000                    
       4.766495       1.607418      -6.475585       0.060000                    
       2.421001       0.826413      -6.835243       0.060000                    
       3.572602       0.259882      -8.076673       0.060000                    
       2.445595      -1.325281      -5.751696       0.060000                    
       2.112806      -1.564612      -7.489588       0.060000                    
       4.383907      -2.265202      -7.884260       0.060000                    
       3.720122      -3.217010      -6.527138       0.060000                    
       4.914007      -1.869474      -4.926056       0.060000                    
       6.065615      -2.436005      -6.167480       0.060000                    
       6.041009      -0.284319      -7.251029       0.060000                    
       6.373806      -0.044974      -5.513130       0.060000                    
      10.698903       8.594068      -0.791367      -0.120000                    
       9.342574       9.301234      -0.757113      -0.120000                    
       8.461566       8.795992       0.387260      -0.120000                    
       8.313610       7.273249       0.367583      -0.120000                    
       9.669956       6.566083       0.333323      -0.120000                    
      10.550956       7.071324      -0.811039      -0.120000                    
      11.261198       8.877284       0.095936       0.060000                    
      11.229726       8.903423      -1.689169       0.060000                    
       9.509813      10.367718      -0.622278       0.060000                    
       8.829834       9.115705      -1.698558       0.060000                    
       8.916011       9.088985       1.331338       0.060000                    
       7.474283       9.242499       0.289121       0.060000                    
       7.751323       6.990031      -0.519715       0.060000                    
       7.782795       6.963893       1.265391       0.060000                    
      10.182688       6.751612       1.274780       0.060000                    
       9.502712       5.499606       0.198494       0.060000                    
      10.096510       6.778331      -1.755117       0.060000                    
      11.538243       6.624810      -0.712904       0.060000                    
      -9.654996      -4.221532       0.796711      -0.120000                    
     -10.237278      -5.591407       0.442824      -0.120000                    
      -9.143713      -6.633554       0.199764      -0.120000                    