%nprocshared=4                                                                       
%mem=8GB                                                                             
#P pop=chelpg cam-b3lyp/gen scf=qc int=ultrafine charge td(nstates=10)               
                                                                                     
pNA CAM-B3LYP def2-TZVPD Single point - solvent def2-SV(P)                           
                                                                                     
0 1                                                                                  
 C       1.386341       0.000000       0.000000                                 
 C       0.000000       0.000000       0.000000                                 
 C      -0.712907       1.188984      -0.000000                                 
 C      -0.035635       2.384357       0.000131                                 
 C       1.365534       2.410943       0.000833                                 
 C       2.063239       1.195576       0.000133                                 
 H       1.918972      -0.938700       0.000854                                 
 H      -1.791888       1.163049       0.000837                                 
 H      -0.586620       3.315732      -0.002113                                 
 H       3.145392       1.202000      -0.002090                                 
 N      -0.713906      -1.260429       0.001744                                 
 O      -1.931758      -1.232720       0.002551                                 
 O      -0.063858      -2.290656       0.002518                                 
 N       2.037885       3.598040      -0.033161                                 
 H       1.540331       4.445798       0.174764                                 
 H       3.020819       3.607257       0.174736                                 
 C      -0.832636       6.992773      -0.332408                                 
 C       0.258655       6.405141      -1.229432                                 
 C      -0.267665       6.067206      -2.625797                                 
 C      -1.507352       5.172204      -2.570107                                 
 C      -2.598643       5.759836      -1.673084                                 
 C      -2.072315       6.097771      -0.276724                                 
 H      -1.122454       7.963916      -0.728095                                 
 H      -0.435040       7.099052       0.674692                                 
 H       1.059186       7.135356      -1.326954                                 
 H       0.633509       5.493414      -0.769174                                 
 H      -0.530220       6.993701      -3.132010                                 
 H       0.513412       5.545474      -3.174858                                 
 H      -1.217535       4.201061      -2.174420                                 
 H      -1.904946       5.065935      -3.577207                                 
 H      -2.973497       6.671563      -2.133342                                 
 H      -3.399172       5.029631      -1.575560                                 
 H      -1.809768       5.171276       0.229494                                 
 H      -2.853390       6.619512       0.272339                                 
 C       4.387565      -0.638051       5.765894                                 
 C       5.418087      -0.070552       4.787686                                 
 C       4.756239       0.575271       3.568732                                 
 C       3.773943      -0.373989       2.879516                                 
 C       2.743414      -0.941478       3.857731                                 
 C       3.405257      -1.587299       5.076676                                 
 H       3.827157       0.188016       6.198605                                 
 H       4.912795      -1.186719       6.544774                                 
 H       6.008303       0.683948       5.303399                                 
 H       6.057682      -0.881993       4.446885                                 
 H       4.213681       1.459836       3.895562                                 
 H       5.531779       0.849959       2.856820                                 
 H       4.334340      -1.200044       2.446804                                 
 H       3.248702       0.174692       2.100635                                 
 H       2.103816      -0.130035       4.198524                                 
 H       2.153197      -1.695987       3.342017                                 
 H       3.947814      -2.471873       4.749845                                 
 H       2.629727      -1.861988       5.788583                                 
 C       0.131359       3.197066       3.222246                                 
 C      -1.383707       3.390110       3.131717                                 
 C      -1.817185       4.767507       3.637575                                 
 C      -1.285773       5.055372       5.043186                                 
 C       0.229293       4.862328       5.133716                                 
 C       0.662771       3.484931       4.627858                                 
 H       0.611095       3.878551       2.522886                                 
 H       0.366438       2.166221       2.966071                                 
 H      -1.685247       3.291214       2.091125                                 
 H      -1.868173       2.628444       3.739017                                 
 H      -1.431393       5.524637       2.958215                                 
 H      -2.904330       4.802180       3.663062                                 
 H      -1.765509       4.373888       5.742547                                 
 H      -1.520852       6.086217       5.299362                                 
 H       0.713773       5.623991       4.526419                                 
 H       0.530833       4.961225       6.174308                                 
 H       0.276979       2.727801       5.307217                                 
 H       1.749916       3.450258       4.602371                                 
 C      -6.162961      -0.032518       0.850777                                 
 C      -7.272653       1.005670       1.028644                                 
 C      -6.850500       2.387633       0.525629                                 
 C      -5.531032       2.846476       1.149695                                 
 C      -4.421342       1.808278       0.971827                                 
 C      -4.843492       0.426325       1.474843                                 
 H      -6.006185      -0.195050      -0.213504                                 
 H      -6.472057      -0.957822       1.332286                                 
 H      -8.145092       0.682108       0.464990                                 
 H      -7.513279       1.079551       2.087089                                 
 H      -6.726933       2.341745      -0.554291                                 
 H      -7.626286       3.104454       0.786541                                 
 H      -5.687808       3.009007       2.213976                                 
 H      -5.221927       3.771779       0.668181                                 
 H      -4.180708       1.734404      -0.086608                                 
 H      -3.548895       2.131847       1.535490                                 
 H      -4.967054       0.472210       2.554771                                 
 H      -4.067706      -0.290496       1.213931                                 
 C       7.304436       2.367520      -2.327235                                 
 C       6.260544       2.456304      -1.212166                                 
 C       6.475703       1.386956      -0.139221                                 
 C       6.555968      -0.018522      -0.738549                                 
 C       7.599854      -0.107299      -1.853589                                 
 C       7.384709       0.962028      -2.926547                                 
 H       8.277317       2.625356      -1.914055                                 
 H       7.031865       3.066407      -3.115155                                 
 H       6.332711       3.436398      -0.745558                                 
 H       5.273438       2.317677      -1.648148                                 
 H       7.408586       1.597557       0.379415                                 
 H       5.640731       1.420628       0.557495                                 
 H       5.583086      -0.276372      -1.151708                                 
 H       6.828536      -0.717432       0.049392                                 
 H       8.586971       0.031305      -1.417606                                 
 H       7.527695      -1.087425      -2.320198                                 
 H       6.451816       0.751418      -3.445180                                 
 H       8.219671       0.928356      -3.623258                                 
 C       2.958509       1.315304      -4.806319                                 
 C       2.588746      -0.120351      -5.184564                                 
 C       1.073702      -0.329716      -5.227009                                 
 C       0.397141       0.113060      -3.928065                                 
 C       0.766904       1.548715      -3.549819                                 
 C       2.281948       1.758080      -3.507375                                 
 H       2.640476       1.978891      -5.607666                                 
 H       4.036788       1.373255      -4.673947                                 
 H       2.997347      -0.336667      -6.169397                                 
 H       3.012343      -0.795194      -4.443738                                 
 H       0.664865       0.254550      -6.048660                                 
 H       0.873148      -1.388064      -5.380205                                 
 H       0.715174      -0.550526      -3.126717                                 
 H      -0.681129       0.055108      -4.060441                                 
 H       0.343315       2.223558      -4.290650                                 
 H       0.358303       1.765032      -2.564987                                 
 H       2.690785       1.173815      -2.685724                                 
 H       2.482503       2.816429      -3.354179                                 
                                                                                
      -2.364797      -0.632912       3.697392      -0.120000                    
      -3.129221      -1.836349       4.252629      -0.120000                    
      -3.160880      -1.839049       5.782339      -0.120000                    
      -1.759376      -1.722619       6.384981      -0.120000                    
      -0.994952      -0.519182       5.829744      -0.120000                    
      -0.963294      -0.516482       4.300035      -0.120000                    
      -2.921135       0.271641       3.933867       0.060000                    
      -2.271357      -0.747502       2.619575       0.060000                    
      -4.152036      -1.798884       3.883777       0.060000                    
      -2.638858      -2.746369       3.913453       0.060000                    
      -3.755637      -0.992669       6.119270       0.060000                    
      -3.607738      -2.772127       6.119139       0.060000                    
      -1.203036      -2.627162       6.148508       0.060000                    
      -1.852822      -1.608026       7.462790       0.060000                    
      -1.485314       0.390848       6.168922       0.060000                    
       0.027858      -0.556644       6.198588       0.060000                    
      -0.368536      -1.362861       3.963103       0.060000                    
      -0.516440       0.416599       3.963226       0.060000                    
       2.696597       6.694432       2.373260      -0.120000                    
       3.295317       7.396850       1.152994      -0.120000                    
       4.784474       7.695895       1.337195      -0.120000                    
       5.059269       8.463096       2.632152      -0.120000                    
       4.460544       7.760675       3.852432      -0.120000                    
       2.971383       7.461632       3.668222      -0.120000                    
       3.138479       5.703680       2.455713       0.060000                    
       1.620065       6.617320       2.236625       0.060000                    
       3.175114       6.750587       0.286091       0.060000                    
       2.768466       8.336257       0.999287       0.060000                    
       5.326952       6.753417       1.369657       0.060000                    
       5.124559       8.298274       0.497424       0.060000                    
       4.617383       9.453846       2.549713       0.060000                    
       6.135803       8.540217       2.768789       0.060000                    
       4.987392       6.821281       4.006132       0.060000                    
       4.580743       8.406940       4.719326       0.060000                    
       2.428907       8.404120       3.635762       0.060000                    
       2.631300       6.859263       4.507995       0.060000                    
       4.976443      -4.592710      -3.045534      -0.120000                    
       4.161292      -5.591185      -2.221257      -0.120000                    
       2.655571      -5.368436      -2.376732      -0.120000                    
       2.256683      -3.921060      -2.081725      -0.120000                    
       3.071833      -2.922585      -2.906002      -0.120000                    
       4.577555      -3.145334      -2.750527      -0.120000                    
       4.805675      -4.792090      -4.101359       0.060000                    
       6.029451      -4.719439      -2.803103       0.060000                    
       4.400486      -6.597546      -2.558319       0.060000                    
       4.423818      -5.472241      -1.172160       0.060000                    
       2.372930      -5.605247      -3.400287       0.060000                    
       2.133763      -6.021651      -1.680446       0.060000                    
       2.427452      -3.721670      -1.025898       0.060000                    
       1.203675      -3.794331      -2.324156       0.060000                    
       2.809308      -3.041529      -3.955099       0.060000                    
       2.832639      -1.916224      -2.568940       0.060000                    
       4.860201      -2.908526      -1.726964       0.060000                    
       5.099364      -2.492118      -3.446813       0.060000                    
      -3.832505      -7.781002       0.990072      -0.120000                    
      -4.270013      -6.912642       2.171379      -0.120000                    
      -3.813093      -5.460737       2.015594      -0.120000                    
      -2.308955      -5.357914       1.754788      -0.120000                    
      -1.871456      -6.226274       0.573485      -0.120000                    
      -2.328367      -7.678180       0.729266      -0.120000                    
      -4.363137      -7.449930       0.099846       0.060000                    
      -4.076911      -8.817788       1.211329       0.060000                    
      -5.356063      -6.930639       2.232738       0.060000                    
      -3.833817      -7.318610       3.081664       0.060000                    
      -4.342827      -5.017842       1.174835       0.060000                    
      -4.044443      -4.923190       2.932793       0.060000                    
      -1.778323      -5.688986       2.645013       0.060000                    
      -2.064548      -4.321128       1.533530       0.060000                    
      -2.307654      -5.820316      -0.336801       0.060000                    
      -0.785397      -6.208278       0.512122       0.060000                    
      -1.798633      -8.121075       1.570024       0.060000                    
      -2.097026      -8.215725      -0.187929       0.060000                    
      -3.474263       0.809660      -3.937815      -0.120000                    
      -4.900716       0.313402      -3.693277      -0.120000                    
      -5.937188       1.160779      -4.433988      -0.120000                    
      -5.787624       2.651250      -4.122381      -0.120000                    
      -4.361171       3.147508      -4.366919      -0.120000                    
      -3.324694       2.300129      -3.626199      -0.120000                    
      -3.223839       0.646354      -4.983892       0.060000                    
      -2.796802       0.250592      -3.295922       0.060000                    
      -4.976484      -0.713607      -4.044077       0.060000                    
      -5.108426       0.364088      -2.626521       0.060000                    
      -5.805499       1.014350      -5.503960       0.060000                    
      -6.930921       0.839844      -4.128718       0.060000                    
      -6.038043       2.814554      -3.076295       0.060000                    
      -6.465080       3.210317      -4.764265       0.060000                    
      -4.153456       3.096820      -5.433666       0.060000                    
      -4.285394       4.174516      -4.016123       0.060000                    
      -3.456388       2.446560      -2.556236       0.060000                    
      -2.330961       2.621064      -3.931469       0.060000                    
       4.108117       5.818930      -5.031709      -0.120000                    
       3.592849       7.223958      -5.349897      -0.120000                    
       4.220518       8.283786      -4.442245      -0.120000                    
       4.061254       7.936858      -2.960595      -0.120000                    
       4.576521       6.531830      -2.642407      -0.120000                    
       3.948857       5.472000      -3.550051      -0.120000                    
       5.164114       5.769355      -5.288819       0.060000                    
       3.542347       5.099621      -5.619971       0.060000                    
       3.840825       7.459660      -6.382630       0.060000                    
       2.514299       7.239223      -5.207900       0.060000                    
       5.281914       8.353024      -4.670972       0.060000                    
       3.730978       9.236959      -4.630682       0.060000                    
       3.005267       7.986442      -2.703489       0.060000                    
       4.627024       8.656167      -2.372333       0.060000                    
       5.655071       6.516565      -2.784405       0.060000                    
       4.328550       6.296125      -1.609666       0.060000                    
       2.887463       5.402771      -3.321322       0.060000                    
       4.438394       4.518839      -3.361621       0.060000                    
       4.258189      -4.194099       2.002816      -0.120000                    
       2.984571      -4.847377       2.543162      -0.120000                    
       3.200554      -5.467597       3.925072      -0.120000                    
       4.389880      -6.429990       3.942026      -0.120000                    
       5.663499      -5.776713       3.401680      -0.120000                    
       5.447507      -5.156493       2.019774      -0.120000                    
       4.498225      -3.333853       2.624131       0.060000                    
       4.079519      -3.880253       0.976556       0.060000                    
       2.209862      -4.087505       2.620345       0.060000                    
       2.676869      -5.631407       1.854468       0.060000                    
       3.389546      -4.668723       4.639022       0.060000                    
       2.304092      -6.017855       4.203116       0.060000                    
       4.149847      -7.290227       3.320712       0.060000                    
       4.568551      -6.743837       4.968286       0.060000                    
       5.971196      -4.992681       4.090365       0.060000                    
       6.438208      -6.536584       3.324497       0.060000                    
       5.258510      -5.955365       1.305816       0.060000                    
       6.343979      -4.606225       1.741727       0.060000                    
      -1.856959      -5.247677      -5.726793      -0.120000                    
      -1.696222      -4.468987      -4.419608      -0.120000                    
      -2.685730      -3.306246      -4.319794      -0.120000                    
      -2.620028      -2.390845      -5.544028      -0.120000                    
      -2.780763      -3.169525      -6.851212      -0.120000                    
      -1.791264      -4.332265      -6.951021      -0.120000                    
      -2.823575      -5.746921      -5.717501       0.060000                    
      -1.054929      -5.979487      -5.796483       0.060000                    
      -1.871489      -5.147097      -3.587183       0.060000                    
      -0.685116      -4.069847      -4.374788       0.060000                    
      -3.692264      -3.711936      -4.242642       0.060000                    
      -2.446005      -2.720787      -3.434689       0.060000                    
      -1.653417      -1.891598      -5.553329       0.060000                    
      -3.422058      -1.659034      -5.474339       0.060000                    
      -3.791871      -3.568675      -6.896033       0.060000                    
      -2.605501      -2.491413      -7.683646       0.060000                    
      -0.784726      -3.926574      -7.028187       0.060000                    
      -2.030982      -4.917734      -7.836133       0.060000                    
       9.987008       3.784789       2.079228      -0.120000                    
       9.322039       4.396525       0.844525      -0.120000                    
       8.635176       5.726096       1.163032      -0.120000                    
       7.660878       5.601472       2.336136      -0.120000                    
       8.325840       4.989748       3.570845      -0.120000                    
       9.012703       3.660177       3.252339      -0.120000                    
      10.814487       4.423503       2.380879       0.060000                    
      10.350717       2.792115       1.822398       0.060000                    
      10.085363       4.571681       0.089383       0.060000                    
       8.574583       3.699769       0.471009       0.060000                    
       9.397491       6.458364       1.420462       0.060000                    
       8.081659       6.050619       0.284427       0.060000                    
       6.833395       4.962771       2.034478       0.060000                    
       7.297171       6.594157       2.592968       0.060000                    
       9.073298       5.686495       3.944347       0.060000                    
       7.562523       4.814590       4.325983       0.060000                    
       8.250388       2.927909       2.994909       0.060000                    
       9.566226       3.335643       4.130938       0.060000                    
      -7.010908      -3.659713      -4.443542      -0.120000                    
      -8.381029      -3.309515      -5.027533      -0.120000                    
      -8.900472      -1.968189      -4.505970      -0.120000                    
      -8.896532      -1.907169      -2.977169      -0.120000                    
      -7.526411      -2.257368      -2.393178      -0.120000                    
      -7.006968      -3.598694      -2.914741      -0.120000                    
      -6.279644      -2.948458      -4.821747       0.060000                    
      -6.749402      -4.669710      -4.751821       0.060000                    
      -8.292809      -3.250910      -6.110325       0.060000                    
      -9.087463      -4.088315      -4.748100       0.060000                    
      -8.260303      -1.175443      -4.887218       0.060000                    
      -9.921094      -1.830533      -4.856756       0.060000                    
      -9.627786      -2.618425      -2.598969       0.060000                    
      -9.158035      -0.897163      -2.668889       0.060000                    
      -6.819976      -1.478567      -2.672610       0.060000                    
      -7.614631      -2.315972      -1.310387       0.060000                    
      -7.647126      -4.391429      -2.533496       0.060000                    
      -5.986337      -3.736350      -2.563960       0.060000                    
      -4.148975       9.889684       2.635453      -0.120000                    
      -3.745667       9.265841       3.972999      -0.120000                    
      -2.276002       9.528456       4.307917      -0.120000                    
      -1.344008       9.101355       3.172132      -0.120000                    
      -1.747308       9.725196       1.834581      -0.120000                    
      -3.216975       9.462589       1.499678      -0.120000                    
      -4.107686      10.972713       2.730403       0.060000                    
      -5.160546       9.570388       2.393775       0.060000                    
      -4.363463       9.696726       4.757965       0.060000                    
      -3.902622       8.190726       3.916624       0.060000                    
      -2.144475      10.594045       4.483537       0.060000                    
      -2.016770       8.964024       5.201178       0.060000                    
      -1.385297       8.018333       3.077183       0.060000                    
      -0.332428       9.420659       3.413807       0.060000                    
      -1.590357      10.800308       1.890969       0.060000                    
      -1.129521       9.294312       1.049620       0.060000                    
      -3.348509       8.396991       1.324049       0.060000                    
      -3.476208      10.027021       0.606418       0.060000                    
      -1.264626       3.122470      -7.987556      -0.120000                    
       0.117373       3.166473      -7.332576      -0.120000                    
       0.204728       4.244802      -6.250633      -0.120000                    
      -0.225999       5.616979      -6.772748      -0.120000                    
      -1.608000       5.572966      -7.427729      -0.120000                    
      -1.695354       4.494637      -8.509672      -0.120000                    
      -1.989421       2.788713      -7.248025       0.060000                    
      -1.231149       2.427221      -8.823641       0.060000                    
       0.316840       2.199227      -6.876286       0.060000                    
       0.858709       3.382213      -8.099084       0.060000                    
      -0.449216       3.965107      -5.427391       0.060000                    
       1.235293       4.310971      -5.908172       0.060000                    
       0.498791       5.950737      -7.512288       0.060000                    
      -0.259481       6.312229      -5.936671       0.060000                    
      -2.349340       5.357228      -6.661230       0.060000                    
      -1.807470       6.540223      -7.884027       0.060000                    
      -1.041416       4.774333      -9.332923       0.060000                    
      -2.725919       4.428467      -8.852133       0.060000                    
     -10.084375      -5.160420       1.434217      -0.120000                    
      -9.176261      -4.723361       0.283095      -0.120000                    
      -7.694673      -4.828248       0.650388      -0.120000                    
      -7.371940      -4.085736       1.948670      -0.120000                    
      -8.280054      -4.522795       3.099791      -0.120000                    
      -9.761642      -4.417909       2.732498      -0.120000                    
      -9.946646      -6.226797       1.600145       0.060000                    
     -11.116595      -4.951221       1.161484       0.060000                    
      -9.368176      -5.365148      -0.574185       0.060000                    
      -9.400928      -3.687686       0.036941       0.060000                    
      -7.441764      -5.878602       0.778484       0.060000                    
      -7.105403      -4.393661      -0.154336       0.060000                    
      -7.509670      -3.019359       1.782741       0.060000                    
      -6.339716      -4.294938       2.221411       0.060000                    
      -8.055386      -5.558461       3.345947       0.060000                    
      -8.088139      -3.880999       3.957073       0.060000                    
     -10.014561      -3.367554       2.604407       0.060000                    
     -10.350912      -4.852495       3.537222       0.060000                    
       2.601070      13.637916      -1.380011      -0.120000                    
       3.139745      12.892709      -2.602861      -0.120000                    
       2.288220      11.669762      -2.949773      -0.120000                    