%nprocshared=4                                                                       
%mem=8GB                                                                             
#P pop=chelpg cam-b3lyp/gen scf=qc int=ultrafine charge td(nstates=10)               
                                                                                     
pNA CAM-B3LYP def2-TZVPD Single point - solvent def2-SV(P)                           
                                                                                     
0 1                                                                                  
 C       1.386341       0.000000       0.000000                                 
 C       0.000000       0.000000       0.000000                                 
 C      -0.712907       1.188984      -0.000000                                 
 C      -0.035635       2.384357       0.000131                                 
 C       1.365534       2.410943       0.000833                                 
 C       2.063239       1.195576       0.000133                                 
 H       1.918972      -0.938700       0.000854                                 
 H      -1.791888       1.163049       0.000837                                 
 H      -0.586620       3.315732      -0.002113                                 
 H       3.145392       1.202000      -0.002090                                 
 N      -0.713906      -1.260429       0.001744                                 
 O      -1.931758      -1.232720       0.002551                                 
 O      -0.063858      -2.290656       0.002518                                 
 N       2.037885       3.598040      -0.033161                                 
 H       1.540331       4.445798       0.174764                                 
 H       3.020819       3.607257       0.174736                                 
 C       1.945657       7.735222      -0.073011                                 
 C       1.142115       7.584622      -1.366273                                 
 C      -0.295265       8.084973      -1.209473                                 
 C      -1.001352       7.436116      -0.017219                                 
 C      -0.197817       7.586721       1.276054                                 
 C       1.239569       7.086363       1.119243                                 
 H       2.075099       8.795345       0.134452                                 
 H       2.913127       7.256042      -0.206979                                 
 H       1.628842       8.164527      -2.147576                                 
 H       1.115906       6.531638      -1.638733                                 
 H      -0.273809       9.161956      -1.056842                                 
 H      -0.848271       7.843149      -2.114736                                 
 H      -1.130795       6.375992      -0.224683                                 
 H      -1.968823       7.915295       0.116749                                 
 H      -0.171602       8.639699       1.548502                                 
 H      -0.684538       7.006810       2.057346                                 
 H       1.218104       6.009385       0.966614                                 
 H       1.792568       7.328199       2.024504                                 
 C       5.210268       0.041319      -2.192990                                 
 C       4.855041       1.224548      -3.095595                                 
 C       5.874414       1.413193      -4.220908                                 
 C       7.305532       1.508203      -3.688111                                 
 C       7.660771       0.324974      -2.785499                                 
 C       6.641400       0.136338      -1.660190                                 
 H       5.113989      -0.876611      -2.769024                                 
 H       4.524823       0.030354      -1.348235                                 
 H       3.878028       1.043065      -3.538354                                 
 H       4.833308       2.128815      -2.491019                                 
 H       5.810095       0.561419      -4.894685                                 
 H       5.639446       2.333119      -4.752175                                 
 H       7.401810       2.426131      -3.112077                                 
 H       7.990979       1.519171      -4.532856                                 
 H       7.682506      -0.579283      -3.390079                                 
 H       8.637774       0.506460      -2.342737                                 
 H       6.705709       0.988114      -0.986411                                 
 H       6.876356      -0.783589      -1.128929                                 
 C       4.212267      -4.718944      -4.166142                                 
 C       3.174989      -3.844193      -4.873110                                 
 C       2.719509      -2.674666      -3.998015                                 
 C       2.234658      -3.141552      -2.623996                                 
 C       3.271937      -4.016303      -1.917029                                 
 C       3.727413      -5.185833      -2.792132                                 
 H       5.123936      -4.139888      -4.034812                                 
 H       4.406731      -5.594353      -4.782132                                 
 H       3.618486      -3.445476      -5.783009                                 
 H       2.308621      -4.457097      -5.112755                                 
 H       3.559202      -1.997082      -3.858624                                 
 H       1.901074      -2.162969      -4.500057                                 
 H       1.322987      -3.720611      -2.755336                                 
 H       2.040191      -2.266146      -2.008015                                 
 H       4.138305      -3.403399      -1.677384                                 
 H       2.828436      -4.415023      -1.007139                                 
 H       2.887723      -5.863413      -2.931515                                 
 H       4.545851      -5.697526      -2.290082                                 
 C      -3.805769      -0.798809      -4.574393                                 
 C      -3.656933      -2.251150      -4.116751                                 
 C      -2.387715      -2.464096      -3.289266                                 
 C      -1.138574      -1.961304      -4.015806                                 
 C      -1.287418      -0.508956      -4.473438                                 
 C      -2.556635      -0.296011      -5.300923                                 
 H      -3.974261      -0.174181      -3.699705                                 
 H      -4.653035      -0.733384      -5.253687                                 
 H      -4.518233      -2.513242      -3.505944                                 
 H      -3.609730      -2.889767      -4.996315                                 
 H      -2.487932      -1.919753      -2.352633                                 
 H      -2.272916      -3.528697      -3.096545                                 
 H      -0.970089      -2.585926      -4.890483                                 
 H      -0.291315      -2.026722      -3.336502                                 
 H      -1.334620       0.129661      -3.593874                                 
 H      -0.426117      -0.246865      -5.084244                                 
 H      -2.456409      -0.840356      -6.237557                                 
 H      -2.671434       0.768590      -5.493644                                 
 C      -3.327596       3.332894       2.128141                                 
 C      -2.202550       2.687858       2.939962                                 
 C      -2.001332       3.378814       4.290174                                 
 C      -1.805279       4.888571       4.138011                                 
 C      -2.930324       5.533607       3.326190                                 
 C      -3.131550       4.842662       1.975975                                 
 H      -4.271392       3.154639       2.639166                                 
 H      -3.343850       2.882859       1.137806                                 
 H      -2.455827       1.644860       3.117517                                 
 H      -1.277877       2.760113       2.371236                                 
 H      -2.881164       3.202721       4.905398                                 
 H      -1.117604       2.959824       4.766832                                 
 H      -0.861482       5.066826       3.626986                                 
 H      -1.789027       5.338603       5.128337                                 
 H      -3.854998       5.461352       3.894916                                 
 H      -2.677058       6.576608       3.148638                                 
 H      -2.251720       5.018746       1.360755                                 
 H      -4.015271       5.261642       1.499320                                 
 C       5.048641      -1.952110       1.611854                                 
 C       3.889729      -2.945203       1.719564                                 
 C       2.881571      -2.534968       2.794911                                 
 C       3.553792      -2.289768       4.147306                                 
 C       4.712707      -1.296666       4.039593                                 
 C       5.720863      -1.706901       2.964246                                 
 H       4.662199      -1.005874       1.239079                                 
 H       5.788772      -2.354787       0.923663                                 
 H       3.377518      -2.987141       0.760680                                 
 H       4.292366      -3.922987       1.975409                                 
 H       2.390661      -1.616882       2.479112                                 
 H       2.151233      -3.333240       2.909346                                 
 H       3.940236      -3.235995       4.520077                                 
 H       2.813663      -1.887082       4.835494                                 
 H       4.310069      -0.318881       3.783748                                 
 H       5.224926      -1.254730       4.998475                                 
 H       6.211772      -2.624996       3.280049                                 
 H       6.451202      -0.908629       2.849811                                 
                                                                                
       5.657406       5.381316       3.410742      -0.120000                    
       5.036556       3.983722       3.457559      -0.120000                    
       6.067037       2.889039       3.173421      -0.120000                    
       6.821556       3.137413       1.865749      -0.120000                    
       7.442417       4.535013       1.818926      -0.120000                    
       6.411926       5.629690       2.103070      -0.120000                    
       6.355847       5.479468       4.239131       0.060000                    
       4.861950       6.118280       3.498507       0.060000                    
       4.620997       3.820963       4.449729       0.060000                    
       4.252141       3.926359       2.705850       0.060000                    
       6.785162       2.867036       3.990412       0.060000                    
       5.549421       1.934876       3.100279       0.060000                    
       6.123120       3.039274       1.037364       0.060000                    
       7.617012       2.400449       1.777984       0.060000                    
       8.226832       4.592376       2.570635       0.060000                    
       7.857977       4.697773       0.826755       0.060000                    
       5.693812       5.651695       1.286086       0.060000                    
       6.929552       6.583851       2.176210       0.060000                    
       2.483059      -7.232615       0.796080      -0.120000                    
       1.427499      -7.683595      -0.215457      -0.120000                    
       0.457669      -6.555554      -0.573152      -0.120000                    
      -0.172625      -5.925500       0.670542      -0.120000                    
       0.882935      -5.474520       1.682079      -0.120000                    
       1.852766      -6.602561       2.039774      -0.120000                    
       3.127057      -6.495391       0.321292       0.060000                    
       3.064170      -8.099891       1.102259       0.060000                    
       1.931987      -8.009097      -1.122751       0.060000                    
       0.860579      -8.505501       0.216669       0.060000                    
       1.004032      -5.785740      -1.113978       0.060000                    
      -0.335535      -6.963521      -1.196132       0.060000                    
      -0.816629      -6.662717       1.145342       0.060000                    
      -0.753736      -5.058224       0.364363       0.060000                    
       1.449859      -4.652610       1.249962       0.060000                    
       0.378446      -5.149026       2.589377       0.060000                    
       1.306402      -7.372374       2.580600       0.060000                    
       2.645959      -6.194600       2.662760       0.060000                    
      -2.572960      -3.433709       3.189839      -0.120000                    
      -2.581051      -4.731225       4.000572      -0.120000                    
      -2.483504      -4.467845       5.504601      -0.120000                    
      -1.287165      -3.580651       5.854839      -0.120000                    
      -1.279074      -2.283134       5.044106      -0.120000                    
      -1.376623      -2.546518       3.540067      -0.120000                    
      -3.487471      -2.884466       3.403564       0.060000                    
      -2.521914      -3.684709       2.132473       0.060000                    
      -3.509973      -5.260838       3.799901       0.060000                    
      -1.728886      -5.335917       3.697532       0.060000                    
      -3.393704      -3.968478       5.829882       0.060000                    
      -2.371801      -5.420630       6.017861       0.060000                    
      -0.372645      -4.129896       5.641111       0.060000                    
      -1.338214      -3.329654       6.912195       0.060000                    
      -2.131243      -1.678455       5.347141       0.060000                    
      -0.350154      -1.753531       5.244781       0.060000                    
      -0.466423      -3.045890       3.214800       0.060000                    
      -1.488324      -1.593728       3.026816       0.060000                    
      -5.754519      -6.442172       0.588968      -0.120000                    
      -5.474546      -7.338171      -0.619203      -0.120000                    
      -4.047513      -7.164549      -1.143057      -0.120000                    
      -3.715804      -5.698293      -1.427842      -0.120000                    
      -3.995787      -4.802291      -0.219670      -0.120000                    
      -5.422821      -4.975914       0.304185      -0.120000                    
      -5.143132      -6.781376       1.422510       0.060000                    
      -6.810337      -6.517275       0.840292       0.060000                    
      -5.611941      -8.375628      -0.321927       0.060000                    
      -6.170660      -7.077962      -1.413799       0.060000                    
      -3.353892      -7.538588      -0.393017       0.060000                    
      -3.945167      -7.729898      -2.066983       0.060000                    
      -4.327196      -5.359093      -2.261394       0.060000                    
      -2.659987      -5.623189      -1.679167       0.060000                    
      -3.299664      -5.062493       0.574921       0.060000                    
      -3.858382      -3.764827      -0.516952       0.060000                    
      -6.116430      -4.601869      -0.445863       0.060000                    
      -5.525157      -4.410566       1.228109       0.060000                    
      -7.139124      -0.241539      -1.185181      -0.120000                    
      -7.107721       1.251378      -0.851831      -0.120000                    
      -6.138058       1.563379       0.289843      -0.120000                    
      -6.413564       0.705706       1.526547      -0.120000                    
      -6.444968      -0.787220       1.193202      -0.120000                    
      -7.414630      -1.099211       0.051524      -0.120000                    
      -6.173382      -0.526110      -1.597510       0.060000                    
      -7.927446      -0.418612      -1.913697       0.060000                    
      -6.790318       1.798668      -1.736910       0.060000                    
      -8.106900       1.562247      -0.554065       0.060000                    
      -5.124091       1.365834      -0.051417       0.060000                    
      -6.247174       2.611078       0.562044       0.060000                    
      -7.379307       0.990278       1.938876       0.060000                    
      -5.625242       0.882779       2.255063       0.060000                    
      -5.445790      -1.098088       0.895436       0.060000                    
      -6.762362      -1.334512       2.078279       0.060000                    
      -8.428589      -0.901678       0.392786       0.060000                    
      -7.305514      -2.146910      -0.220677       0.060000                    
      -3.259604       4.006325      -2.886424      -0.120000                    
      -4.040567       3.828597      -4.190045      -0.120000                    
      -4.790882       5.101675      -4.586711      -0.120000                    
      -5.677983       5.620991      -3.453416      -0.120000                    
      -4.897019       5.798713      -2.149782      -0.120000                    
      -4.146704       4.525636      -1.753115      -0.120000                    
      -2.457923       4.721979      -3.056170       0.060000                    
      -2.849120       3.042485      -2.592812       0.060000                    
      -3.340142       3.576394      -4.983324       0.060000                    
      -4.763385       3.026625      -4.055741       0.060000                    
      -4.063001       5.870087      -4.838473       0.060000                    
      -5.419425       4.881011      -5.446908       0.060000                    
      -6.479663       4.905331      -3.283656       0.060000                    
      -6.088468       6.584831      -3.747027       0.060000                    
      -4.174202       6.600691      -2.284098       0.060000                    
      -5.597444       6.050917      -1.356502       0.060000                    
      -4.874586       3.757229      -1.501366       0.060000                    
      -3.518159       4.746308      -0.892922       0.060000                    
       2.063706       5.166919      -5.381559      -0.120000                    
       2.283034       3.742137      -4.868966      -0.120000                    
       1.278857       2.756123      -5.469334      -0.120000                    
      -0.166250       3.219342      -5.274075      -0.120000                    
      -0.385576       4.644133      -5.786673      -0.120000                    
       0.618588       5.630146      -5.186311      -0.120000                    
       2.296908       5.194003      -6.443923       0.060000                    
       2.721133       5.838629      -4.833678       0.060000                    
       3.287310       3.425119      -5.142024       0.060000                    
       2.167789       3.740234      -3.787106       0.060000                    
       1.474293       2.666989      -6.535874       0.060000                    
       1.403886       1.791966      -4.980949       0.060000                    
      -0.399454       3.192263      -4.211725       0.060000                    
      -0.823678       2.547637      -5.821969       0.060000                    
      -0.270342       4.646039      -6.868530       0.060000                    
      -1.389855       4.961146      -5.513624       0.060000                    
       0.423164       5.719281      -4.119763       0.060000                    
       0.493572       6.594304      -5.674689       0.060000                    
       6.683874       7.902276      -3.995868      -0.120000                    
       6.548470       7.751110      -2.479401      -0.120000                    
       6.566413       6.283887      -2.045841      -0.120000                    
       5.528114       5.450547      -2.799831      -0.120000                    
       5.663521       5.601717      -4.316289      -0.120000                    
       5.645578       7.068939      -4.749849      -0.120000                    
       7.677024       7.570282      -4.291087       0.060000                    
       6.543647       8.949596      -4.254793       0.060000                    
       7.380993       8.264576      -2.003077       0.060000                    
       5.604496       8.193896      -2.168727       0.060000                    
       7.553868       5.873939      -2.247030       0.060000                    
       6.346489       6.233167      -0.981507       0.060000                    
       4.534954       5.782543      -2.504610       0.060000                    
       5.668334       4.403232      -2.540895       0.060000                    
       6.607493       5.158920      -4.626959       0.060000                    
       4.830988       5.088253      -4.792612       0.060000                    
       4.658113       7.478890      -4.548658       0.060000                    
       5.865498       7.119647      -5.814188       0.060000                    
       1.203745       7.160381       5.145276      -0.120000                    
       2.290437       8.237378       5.153569      -0.120000                    
       3.564699       7.760352       5.853371      -0.120000                    
       3.280640       7.221991       7.257094      -0.120000                    
       2.193948       6.144994       7.248802      -0.120000                    
       0.919683       6.622016       6.548991      -0.120000                    
       1.535793       6.336224       4.517444       0.060000                    
       0.288431       7.593084       4.747060       0.060000                    
       2.533957       8.493556       4.124662       0.060000                    
       1.910697       9.110414       5.680077       0.060000                    
       4.010539       6.965158       5.259676       0.060000                    
       4.251405       8.600255       5.935541       0.060000                    
       2.948593       8.046158       7.884923       0.060000                    
       4.195954       6.789288       7.655311       0.060000                    
       2.573684       5.271955       6.722286       0.060000                    
       1.950429       5.888824       8.277703       0.060000                    
       0.473846       7.417215       7.142696       0.060000                    
       0.232967       5.782115       6.466823       0.060000                    
       1.478773       2.476273       8.138841      -0.120000                    
       2.956212       2.253700       8.468311      -0.120000                    
       3.842890       2.360950       7.225989      -0.120000                    
       3.362911       1.445064       6.098262      -0.120000                    
       1.885473       1.667637       5.768791      -0.120000                    
       0.998804       1.560385       7.011112      -0.120000                    
       1.343697       3.510187       7.828300       0.060000                    
       0.888996       2.269626       9.029352       0.060000                    
       3.270081       3.008949       9.185685       0.060000                    
       3.071697       1.258724       8.892998       0.060000                    
       3.821786       3.389296       6.871506       0.060000                    
       4.857285       2.076066       7.497265       0.060000                    
       3.497988       0.411150       6.408803       0.060000                    
       3.952698       1.651708       5.207749       0.060000                    
       1.769997       2.662611       5.344104       0.060000                    
       1.571613       0.912386       5.051415       0.060000                    
       1.019906       0.532035       7.365586       0.060000                    
      -0.015591       1.845268       6.739836       0.060000                    
      -1.387838      -8.139297      -4.825289      -0.120000                    
      -2.626314      -7.581042      -5.529169      -0.120000                    
      -2.263806      -6.524671      -6.574967      -0.120000                    
      -1.388440      -5.414847      -5.989247      -0.120000                    
      -0.149963      -5.973093      -5.285371      -0.120000                    
      -0.512471      -7.029464      -4.239574      -0.120000                    
      -0.800053      -8.700379      -5.548732       0.060000                    
      -1.711666      -8.790260      -4.016002       0.060000                    
      -3.142311      -8.399683      -6.026319       0.060000                    
      -3.273721      -7.124300      -4.783562       0.060000                    
      -1.718299      -7.007967      -7.382695       0.060000                    
      -3.182136      -6.080162      -6.952888       0.060000                    
      -1.976236      -4.853761      -5.265802       0.060000                    
      -1.064612      -4.763884      -6.798534       0.060000                    
       0.497433      -6.429840      -6.030972       0.060000                    
       0.366032      -5.154461      -4.788218       0.060000                    
      -1.057980      -6.546176      -3.431842       0.060000                    
       0.405849      -7.473970      -3.861650       0.060000                    
       5.406460       9.498422       2.121251      -0.120000                    
       6.364226       9.382102       0.933775      -0.120000                    
       6.968662      10.734408       0.550412      -0.120000                    
       5.893365      11.797626       0.317420      -0.120000                    
       4.935618      11.913942       1.504891      -0.120000                    
       4.331166      10.561660       1.888250      -0.120000                    
       5.979623       9.771424       3.004790       0.060000                    
       4.918686       8.537420       2.269977       0.060000                    
       7.171441       8.704353       1.203225       0.060000                    
       5.813737       8.992760       0.079932       0.060000                    
       7.617141      11.066937       1.358208       0.060000                    
       7.540943      10.611913      -0.366752       0.060000                    
       5.320214      11.524632      -0.566126       0.060000                    
       6.381141      12.758648       0.168686       0.060000                    
       5.486090      12.303308       2.358730       0.060000                    
       4.128397      12.591711       1.235435       0.060000                    
       3.682697      10.229127       1.080453       0.060000                    
       3.758894      10.684143       2.805416       0.060000                    
       7.853004      -5.360006      -3.107196      -0.120000                    
       8.879382      -4.457901      -3.795382      -0.120000                    
       9.867597      -3.849542      -2.798226      -0.120000                    
       9.154920      -3.133890      -1.648896      -0.120000                    
       8.128545      -4.035993      -0.960702      -0.120000                    
       7.140328      -4.644360      -1.957854      -0.120000                    
       8.368075      -6.231272      -2.708097       0.060000                    
       7.109966      -5.664330      -3.841239       0.060000                    
       9.435468      -5.051843      -4.517586       0.060000                    
       8.351027      -3.650414      -4.297856       0.060000                    
      10.479774      -4.647998      -2.384307       0.060000                    
      10.491549      -3.128958      -3.322789       0.060000                    
       8.639852      -2.262622      -2.047987       0.060000                    
       9.897961      -2.829563      -0.914845       0.060000                    
       8.656898      -4.843489      -0.458224       0.060000                    
       7.572456      -3.442063      -0.238503       0.060000                    
       6.528150      -3.845908      -2.371782       0.060000                    
       6.516379      -5.364935      -1.433295       0.060000                    
      -6.413589       0.977256       8.429038      -0.120000                    
      -6.452920      -0.099769       7.343070      -0.120000                    
      -5.073024      -0.345782       6.729638      -0.120000                    