%nprocshared=4                                                                       
%mem=8GB                                                                             
#P pop=chelpg cam-b3lyp/gen scf=qc int=ultrafine charge td(nstates=10)               
                                                                                     
pNA CAM-B3LYP def2-TZVPD Single point - solvent def2-SV(P)                           
                                                                                     
0 1                                                                                  
 C       1.386341       0.000000       0.000000                                 
 C       0.000000       0.000000       0.000000                                 
 C      -0.712907       1.188984      -0.000000                                 
 C      -0.035635       2.384357       0.000131                                 
 C       1.365534       2.410943       0.000833                                 
 C       2.063239       1.195576       0.000133                                 
 H       1.918972      -0.938700       0.000854                                 
 H      -1.791888       1.163049       0.000837                                 
 H      -0.586620       3.315732      -0.002113                                 
 H       3.145392       1.202000      -0.002090                                 
 N      -0.713906      -1.260429       0.001744                                 
 O      -1.931758      -1.232720       0.002551                                 
 O      -0.063858      -2.290656       0.002518                                 
 N       2.037885       3.598040      -0.033161                                 
 H       1.540331       4.445798       0.174764                                 
 H       3.020819       3.607257       0.174736                                 
 C      -6.880706       0.411974      -0.071823                                 
 C      -7.468792       1.713133       0.477750                                 
 C      -6.432224       2.837760       0.519830                                 
 C      -5.164222       2.421020       1.267835                                 
 C      -4.576138       1.119861       0.718276                                 
 C      -5.612702      -0.004772       0.676190                                 
 H      -6.633132       0.558201      -1.121130                                 
 H      -7.622232      -0.376959       0.034531                                 
 H      -8.290792       2.021795      -0.164662                                 
 H      -7.827362       1.532816       1.488985                                 
 H      -6.163095       3.100913      -0.500940                                 
 H      -6.869592       3.694849       1.027636                                 
 H      -5.411794       2.274786       2.317150                                 
 H      -4.422685       3.209951       1.161490                                 
 H      -4.217556       1.300176      -0.292964                                 
 H      -3.754137       0.811199       1.360674                                 
 H      -5.881831      -0.267926       1.696960                                 
 H      -5.175330      -0.861851       0.168391                                 
 C      -4.433593      -6.732406       0.645855                                 
 C      -3.016453      -6.416779       0.163148                                 
 C      -2.740832      -4.911961       0.139732                                 
 C      -3.800805      -4.147286      -0.655712                                 
 C      -5.217950      -4.462906      -0.172999                                 
 C      -5.493570      -5.967724      -0.149584                                 
 H      -4.514816      -6.450749       1.693568                                 
 H      -4.611945      -7.798995       0.526914                                 
 H      -2.305940      -6.889904       0.837626                                 
 H      -2.897430      -6.807747      -0.845154                                 
 H      -2.740447      -4.542623       1.163069                                 
 H      -1.770501      -4.743425      -0.322618                                 
 H      -3.719582      -4.428942      -1.703426                                 
 H      -3.622454      -3.080698      -0.536772                                 
 H      -5.336968      -4.071945       0.835296                                 
 H      -5.928463      -3.989782      -0.847477                                 
 H      -5.493955      -6.337062      -1.172920                                 
 H      -6.463901      -6.136260       0.312766                                 
 C      -0.276654       1.840888       5.144875                                 
 C      -0.432033       3.112662       5.981141                                 
 C      -1.740550       3.843932       5.674461                                 
 C      -1.907195       4.117880       4.178384                                 
 C      -1.751817       2.846107       3.342119                                 
 C      -0.443299       2.114836       3.648798                                 
 H      -1.036534       1.126348       5.454213                                 
 H       0.717132       1.432216       5.314893                                 
 H      -0.425031       2.839382       7.034175                                 
 H       0.398879       3.778793       5.758644                                 
 H      -2.570956       3.225939       6.009379                                 
 H      -1.739998       4.794387       6.203981                                 
 H      -1.147315       4.832420       3.869047                                 
 H      -2.900994       4.526555       4.008371                                 
 H      -2.582735       2.179965       3.564621                                 
 H      -1.758826       3.119381       2.289082                                 
 H       0.387099       2.732826       3.313879                                 
 H      -0.443851       1.164382       3.119278                                 
 C      -2.465979      -1.777896       5.972862                                 
 C      -1.934446      -1.851434       4.540030                                 
 C      -3.040280      -1.628342       3.506401                                 
 C      -4.228153      -2.567360       3.725936                                 
 C      -4.759686      -2.493821       5.158768                                 
 C      -3.653850      -2.716920       6.192405                                 
 H      -2.787612      -0.757904       6.172478                                 
 H      -1.667460      -2.062088       6.654984                                 
 H      -1.176842      -1.081559       4.410306                                 
 H      -1.502349      -2.836947       4.379655                                 
 H      -3.389548      -0.601138       3.587113                                 
 H      -2.631350      -1.811024       2.514891                                 
 H      -3.906511      -3.587348       3.526321                                 
 H      -5.026670      -2.283174       3.043821                                 
 H      -5.191781      -1.508314       5.319150                                 
 H      -5.517290      -3.263696       5.288492                                 
 H      -3.304582      -3.744123       6.111692                                 
 H      -4.062780      -2.534237       7.183914                                 
 C       2.710838       5.450408      -3.190040                                 
 C       2.739066       6.679655      -2.279496                                 
 C       3.917132       7.602304      -2.598639                                 
 C       5.250927       6.852692      -2.590943                                 
 C       5.222696       5.623453      -3.501481                                 
 C       4.044633       4.700796      -3.182343                                 
 H       2.500678       5.775573      -4.206783                                 
 H       1.931370       4.776682      -2.840614                                 
 H       1.814389       7.235950      -2.417643                                 
 H       2.828234       6.346138      -1.247772                                 
 H       3.765053       8.031229      -3.586837                                 
 H       3.956030       8.388793      -1.847888                                 
 H       5.461088       6.527527      -1.574201                                 
 H       6.030394       7.526424      -2.940377                                 
 H       5.133531       5.956962      -4.533211                                 
 H       6.147372       5.067158      -3.363334                                 
 H       4.196718       4.271882      -2.194139                                 
 H       4.005735       3.914307      -3.933095                                 
 C      -0.900262      -3.964584      -3.819228                                 
 C       0.288574      -4.221732      -2.891133                                 
 C       1.440928      -4.920086      -3.615964                                 
 C       0.982377      -6.195096      -4.326674                                 
 C      -0.206460      -5.937948      -5.254768                                 
 C      -1.358817      -5.239587      -4.529932                                 
 H      -0.603719      -3.235418      -4.570246                                 
 H      -1.727549      -3.580402      -3.226273                                 
 H       0.645164      -3.267096      -2.510149                                 
 H      -0.041405      -4.855837      -2.070955                                 
 H       1.850328      -4.236959      -4.357152                                 
 H       2.202242      -5.184183      -2.884974                                 
 H       0.685830      -6.924256      -3.575649                                 
 H       1.809663      -6.579277      -4.919628                                 
 H       0.123516      -5.303836      -6.074941                                 
 H      -0.563050      -6.892583      -5.635752                                 
 H      -1.768214      -5.922721      -3.788749                                 
 H      -2.120131      -4.975491      -5.260921                                 
                                                                                
       5.121211       1.937082       3.917705      -0.120000                    
       3.874568       2.482359       4.617311      -0.120000                    
       3.494805       3.874552       4.108778      -0.120000                    
       4.668824       4.852722       4.185004      -0.120000                    
       5.915463       4.307451       3.485404      -0.120000                    
       6.295228       2.915253       3.993945      -0.120000                    
       4.883233       1.760502       2.870884       0.060000                    
       5.412008       1.006634       4.400721       0.060000                    
       3.044935       1.804670       4.427597       0.060000                    
       4.074301       2.544778       5.684947       0.060000                    
       3.178420       3.791347       3.071192       0.060000                    
       2.681911       4.258682       4.721478       0.060000                    
       4.906799       5.029303       5.231838       0.060000                    
       4.378031       5.783181       3.701996       0.060000                    
       5.715735       4.245019       2.417769       0.060000                    
       6.745097       4.985134       3.675126       0.060000                    
       6.611619       2.998468       5.031524       0.060000                    
       7.108119       2.531128       3.381236       0.060000                    
       6.856737       1.752553      -2.954474      -0.120000                    
       7.682795       0.489651      -3.206715      -0.120000                    
       7.704997      -0.433760      -1.986933      -0.120000                    
       8.151602       0.299750      -0.720634      -0.120000                    
       7.325543       1.562653      -0.468394      -0.120000                    
       7.303350       2.486068      -1.688174      -0.120000                    
       5.812640       1.468328      -2.841632       0.060000                    
       6.976006       2.421500      -3.804090       0.060000                    
       7.245456      -0.050457      -4.043710       0.060000                    
       8.704323       0.783031      -3.439277       0.060000                    
       6.701808      -0.823379      -1.827523       0.060000                    
       8.399873      -1.248341      -2.180191       0.060000                    
       9.195707       0.583980      -0.833475       0.060000                    
       8.032331      -0.369190       0.128974       0.060000                    
       6.304024       1.269277      -0.235830       0.060000                    
       7.762891       2.102765       0.368603       0.060000                    
       8.306537       2.875692      -1.847592       0.060000                    
       6.608466       3.300644      -1.494918       0.060000                    
      -2.964966       3.264201      -3.438379      -0.120000                    
      -3.706668       1.931693      -3.561729      -0.120000                    
      -4.091397       1.621874      -5.009837      -0.120000                    
      -4.867465       2.771652      -5.655401      -0.120000                    
      -4.125770       4.104173      -5.532053      -0.120000                    
      -3.741034       4.413979      -4.083943      -0.120000                    
      -2.001351       3.173056      -3.935184       0.060000                    
      -2.825677       3.488190      -2.382921       0.060000                    
      -3.058439       1.137877      -3.196796       0.060000                    
      -4.614367       1.982387      -2.964091       0.060000                    
      -3.182079       1.451540      -5.582341       0.060000                    
      -4.716397       0.731378      -5.020546       0.060000                    
      -5.831089       2.862792      -5.158598       0.060000                    
      -5.006759       2.547670      -6.710853       0.060000                    
      -3.218063       4.053466      -6.129690       0.060000                    
      -4.774002       4.897972      -5.896986       0.060000                    
      -4.650352       4.584312      -3.511440       0.060000                    
      -3.116035       5.304475      -4.073236       0.060000                    
      -4.673899       5.942778      -0.083849      -0.120000                    
      -3.347523       6.308042       0.585602      -0.120000                    
      -3.225570       7.813076       0.832606      -0.120000                    
      -3.466882       8.624603      -0.441830      -0.120000                    
      -4.793257       8.259340      -1.111281      -0.120000                    
      -4.915219       6.754302      -1.358286      -0.120000                    
      -5.483126       6.144104       0.614961       0.060000                    
      -4.653248       4.886382      -0.343056       0.060000                    
      -3.287222       5.792783       1.541898       0.060000                    
      -2.532556       5.995128      -0.063698       0.060000                    
      -3.964933       8.104516       1.575592       0.060000                    
      -2.222074       8.025660       1.195310       0.060000                    
      -2.657665       8.423280      -1.140649       0.060000                    
      -3.487543       9.681002      -0.182631       0.060000                    
      -5.608235       8.572256      -0.461989       0.060000                    
      -4.853570       8.774601      -2.067586       0.060000                    
      -4.175861       6.462868      -2.101266       0.060000                    
      -5.918717       6.541724      -1.720998       0.060000                    
       3.377874      -3.856248       5.526140      -0.120000                    
       2.050697      -3.113666       5.358700      -0.120000                    
       2.038714      -2.237061       4.104735      -0.120000                    
       3.236953      -1.286795       4.058072      -0.120000                    
       4.564129      -2.029377       4.225512      -0.120000                    
       4.576126      -2.905985       5.479472      -0.120000                    
       3.475957      -4.579307       4.719150       0.060000                    
       3.373568      -4.363314       6.488641       0.060000                    
       1.250216      -3.846026       5.278549       0.060000                    
       1.895476      -2.478597       6.228333       0.060000                    
       2.072188      -2.882080       3.229278       0.060000                    
       1.125630      -1.645473       4.102852       0.060000                    
       3.138878      -0.563732       4.865064       0.060000                    
       3.241272      -0.779731       3.095566       0.060000                    
       4.719350      -2.664446       3.355879       0.060000                    
       5.364623      -1.297019       4.305658       0.060000                    
       4.542640      -2.260969       6.354941       0.060000                    
       5.489206      -3.497566       5.481361       0.060000                    
       0.309832       7.606215       5.391513      -0.120000                    
       0.259687       9.117613       5.158900      -0.120000                    
       0.091090       9.464295       3.678219      -0.120000                    
       1.149075       8.785012       2.806294      -0.120000                    
       1.199200       7.273636       3.038903      -0.120000                    
       1.367814       6.926944       4.519573      -0.120000                    
      -0.663408       7.184639       5.149073       0.060000                    
       0.550673       7.423038       6.436506       0.060000                    
      -0.584536       9.526402       5.709984       0.060000                    
       1.190092       9.555193       5.514650       0.060000                    
      -0.892684       9.132315       3.353246       0.060000                    
       0.183492      10.541960       3.560818       0.060000                    
       2.122303       9.206596       3.048717       0.060000                    
       0.908231       8.968200       1.761285       0.060000                    
       0.268803       6.836041       2.683140       0.060000                    
       2.043445       6.864830       2.487801       0.060000                    
       2.351579       7.258920       4.844544       0.060000                    
       1.275403       5.849275       4.636972       0.060000                    
       3.513708      -4.516677       0.387517      -0.120000                    
       4.747515      -3.921022       1.068538      -0.120000                    
       6.024636      -4.176251       0.265525      -0.120000                    
       6.210014      -5.659606      -0.060490      -0.120000                    
       4.976199      -6.255267      -0.741512      -0.120000                    
       3.699077      -6.000038       0.061501      -0.120000                    
       3.333701      -3.976787      -0.539737       0.060000                    
       2.662396      -4.411543       1.056726       0.060000                    
       4.606578      -2.846585       1.165287       0.060000                    
       4.857088      -4.377148       2.050179       0.060000                    
       5.965651      -3.619939      -0.667570       0.060000                    
       6.877103      -3.840037       0.852039       0.060000                    
       6.390026      -6.199504       0.866758       0.060000                    
       7.061325      -5.764735      -0.729707       0.060000                    
       4.866634      -5.799137      -1.723152       0.060000                    
       5.117144      -7.329700      -0.838260       0.060000                    
       3.758067      -6.556357       0.994588       0.060000                    
       2.846623      -6.336255      -0.525018       0.060000                    
       0.537059      -7.463508       1.906742      -0.120000                    
       0.929795      -8.487514       2.973560      -0.120000                    
      -0.150162      -8.640038       4.046615      -0.120000                    
      -0.542441      -7.294606       4.660526      -0.120000                    
      -0.935164      -6.270601       3.593704      -0.120000                    
       0.144793      -6.118078       2.520649      -0.120000                    
      -0.312100      -7.851584       1.348186       0.060000                    
       1.385830      -7.308968       1.243973       0.060000                    
       1.079840      -9.451385       2.491807       0.060000                    
       1.849875      -8.156900       3.450852       0.060000                    
      -1.032411      -9.084851       3.591204       0.060000                    
       0.232399      -9.283913       4.835751       0.060000                    
       0.306730      -6.906531       5.219077       0.060000                    
      -1.391210      -7.449145       5.323281       0.060000                    
      -1.855254      -6.601220       3.116410       0.060000                    
      -1.085211      -5.306724       4.075449       0.060000                    
       1.027041      -5.673265       2.976060       0.060000                    
      -0.237768      -5.474203       1.731513       0.060000                    
      -0.358946       1.078601      -5.533509      -0.120000                    
      -0.051257      -0.404496      -5.749575      -0.120000                    
       1.137160      -0.871912      -4.906821      -0.120000                    
       2.371703       0.006467      -5.119705      -0.120000                    
       2.064014       1.489564      -4.903639      -0.120000                    
       0.875593       1.956987      -5.746387      -0.120000                    
      -0.711342       1.215564      -4.513356       0.060000                    
      -1.127198       1.381111      -6.241913       0.060000                    
      -0.926839      -0.985802      -5.468462       0.060000                    
       0.184437      -0.561256      -6.800059       0.060000                    
       0.856840      -0.828994      -3.856494       0.060000                    
       1.383955      -1.892995      -5.190056       0.060000                    
       2.724099      -0.130496      -6.139857       0.060000                    
       3.139954      -0.296043      -4.411300       0.060000                    
       1.828319       1.646324      -3.853154       0.060000                    
       2.939596       2.070870      -5.184752       0.060000                    
       1.155913       1.914069      -6.796714       0.060000                    
       0.628798       2.978070      -5.463151       0.060000                    
       4.093521      -2.889955      -6.378933      -0.120000                    
       4.202067      -3.543131      -4.999636      -0.120000                    
       5.622157      -3.459908      -4.436273      -0.120000                    
       6.660480      -4.011932      -5.415108      -0.120000                    
       6.551934      -3.358757      -6.794406      -0.120000                    
       5.131835      -3.441984      -7.357770      -0.120000                    
       4.253009      -1.819247      -6.270144       0.060000                    
       3.100643      -3.084852      -6.778800       0.060000                    
       3.526973      -3.030184      -4.317880       0.060000                    
       3.924126      -4.591245      -5.088423       0.060000                    
       5.855299      -2.416697      -4.233801       0.060000                    
       5.666469      -4.041546      -3.517863       0.060000                    
       6.500992      -5.082640      -5.523898       0.060000                    
       7.653362      -3.817042      -5.015248       0.060000                    
       6.829875      -2.310642      -6.705618       0.060000                    
       7.227034      -3.871716      -7.476160       0.060000                    
       4.898703      -4.485190      -7.560240       0.060000                    
       5.087533      -2.860341      -8.276178       0.060000                    
      -8.017148      -4.097003      -4.686392      -0.120000                    
      -8.695354      -3.314978      -3.559718      -0.120000                    
      -8.083648      -1.924294      -3.378526      -0.120000                    
      -6.565164      -1.984604      -3.200858      -0.120000                    
      -5.886961      -2.766622      -4.327526      -0.120000                    
      -6.498666      -4.157307      -4.508731      -0.120000                    
      -8.237310      -3.605933      -5.631946       0.060000                    
      -8.407533      -5.112474      -4.688704       0.060000                    
      -9.750179      -3.202064      -3.800889       0.060000                    
      -8.577798      -3.870128      -2.631468       0.060000                    
      -8.307043      -1.328530      -4.261003       0.060000                    
      -8.519265      -1.465561      -2.493367       0.060000                    
      -6.345001      -2.475674      -2.255304       0.060000                    
      -6.174780      -0.969127      -3.198553       0.060000                    
      -6.004504      -2.211474      -5.255781       0.060000                    
      -4.832124      -2.879532      -4.086368       0.060000                    
      -6.275261      -4.753066      -3.626254       0.060000                    
      -6.063040      -4.616035      -5.393889       0.060000                    
       1.049455      10.471829      -1.144147      -0.120000                    
       1.220735      11.908113      -1.642787      -0.120000                    
       0.775261      12.934146      -0.598854      -0.120000                    
      -0.646632      12.665845      -0.101674      -0.120000                    
      -0.817917      11.229573       0.396964      -0.120000                    
      -0.372443      10.203541      -0.646969      -0.120000                    
       1.742514      10.304070      -0.322452       0.060000                    
       1.265135       9.790827      -1.964734       0.060000                    
       2.271979      12.075012      -1.867769       0.060000                    
       0.617628      12.039383      -2.538717       0.060000                    
       1.455136      12.885095       0.249078       0.060000                    
       0.804969      13.923930      -1.049518       0.060000                    
      -1.339696      12.833617      -0.923371       0.060000                    
      -0.862316      13.346854       0.718919       0.060000                    
      -0.214808      11.098299       1.292901       0.060000                    
      -1.869162      11.062675       0.621946       0.060000                    
      -1.052317      10.252585      -1.494893       0.060000                    
      -0.402151       9.213753      -0.196297       0.060000                    
       9.555083      -0.363703       4.406235      -0.120000                    
       9.851332      -1.529160       5.352212      -0.120000                    
       9.865056      -2.872469       4.619867      -0.120000                    
       8.584126      -3.099467       3.814452      -0.120000                    
       8.287882      -1.934017       2.868468      -0.120000                    
       8.274152      -0.590694       3.600812      -0.120000                    
      10.387268      -0.258088       3.713410       0.060000                    
       9.438423       0.542498       4.996833       0.060000                    
      10.827706      -1.369992       5.804889       0.060000                    
       9.080189      -1.559165       6.119115       0.060000                    
      10.712195      -2.887767       3.937392       0.060000                    
       9.958784      -3.668543       5.355566       0.060000                    
       7.751945      -3.205088       4.507270       0.060000                    
       8.700786      -4.005668       3.223853       0.060000                    
       9.059024      -1.904011       2.101566       0.060000                    
       7.311507      -2.093184       2.415792       0.060000                    
       7.427019      -0.575410       4.283288       0.060000                    
       8.180426       0.205374       2.865121       0.060000                    
      -9.970489       4.242512      -3.982555      -0.120000                    
     -10.508148       4.960782      -2.743241      -0.120000                    
      -9.389339       5.612786      -1.928265      -0.120000                    