%nprocshared=4                                                                       
%mem=8GB                                                                             
#P pop=chelpg cam-b3lyp/gen scf=qc int=ultrafine charge td(nstates=10)               
                                                                                     
pNA CAM-B3LYP def2-TZVPD Single point - solvent def2-SV(P)                           
                                                                                     
0 1                                                                                  
 C       1.386341       0.000000       0.000000                                 
 C       0.000000       0.000000       0.000000                                 
 C      -0.712907       1.188984      -0.000000                                 
 C      -0.035635       2.384357       0.000131                                 
 C       1.365534       2.410943       0.000833                                 
 C       2.063239       1.195576       0.000133                                 
 H       1.918972      -0.938700       0.000854                                 
 H      -1.791888       1.163049       0.000837                                 
 H      -0.586620       3.315732      -0.002113                                 
 H       3.145392       1.202000      -0.002090                                 
 N      -0.713906      -1.260429       0.001744                                 
 O      -1.931758      -1.232720       0.002551                                 
 O      -0.063858      -2.290656       0.002518                                 
 N       2.037885       3.598040      -0.033161                                 
 H       1.540331       4.445798       0.174764                                 
 H       3.020819       3.607257       0.174736                                 
 C       7.752880       1.725322       1.095150                                 
 C       7.198901       1.680791       2.520635                                 
 C       5.669292       1.650704       2.540386                                 
 C       5.062808       2.794756       1.725296                                 
 C       5.616790       2.839291       0.299819                                 
 C       7.146396       2.869371       0.280073                                 
 H       7.518588       0.784506       0.601516                                 
 H       8.830348       1.867155       1.145126                                 
 H       7.570645       0.783179       3.010257                                 
 H       7.536065       2.567949       3.052586                                 
 H       5.334612       0.706284       2.116454                                 
 H       5.333051       1.741853       3.571105                                 
 H       5.297100       3.735569       2.218943                                 
 H       3.985332       2.652925       1.675335                                 
 H       5.279623       1.952129      -0.232140                                 
 H       5.245046       3.736904      -0.189803                                 
 H       7.481075       3.813794       0.703992                                 
 H       7.482633       2.778216      -0.750653                                 
 C      -3.239965      -0.684165      -5.685124                                 
 C      -2.310335       0.520059      -5.522448                                 
 C      -1.677565       0.571649      -4.130356                                 
 C      -2.728281       0.504710      -3.020180                                 
 C      -3.657915      -0.699522      -3.182850                                 
 C      -4.290689      -0.751118      -4.574949                                 
 H      -2.641611      -1.592232      -5.652695                                 
 H      -3.750364      -0.602590      -6.642396                                 
 H      -1.516363       0.448889      -6.262789                                 
 H      -2.888550       1.428870      -5.675405                                 
 H      -1.003874      -0.275835      -4.023034                                 
 H      -1.127779       1.505424      -4.032766                                 
 H      -3.326651       1.412768      -3.052609                                 
 H      -2.217898       0.423127      -2.062908                                 
 H      -3.079699      -1.608333      -3.029893                                 
 H      -4.451887      -0.628350      -2.442523                                 
 H      -4.964372       0.096379      -4.682271                                 
 H      -4.840470      -1.684886      -4.672532                                 
 C       3.417282       1.668385      -3.262123                                 
 C       2.313848       1.573135      -4.317725                                 
 C       1.806076       0.139901      -4.488254                                 
 C       2.946076      -0.843623      -4.760428                                 
 C       4.049514      -0.748366      -3.704833                                 
 C       4.557279       0.684856      -3.534305                                 
 H       2.987635       1.441795      -2.288610                                 
 H       3.820421       2.678865      -3.270715                                 
 H       1.481857       2.202278      -4.008739                                 
 H       2.713072       1.916119      -5.269906                                 
 H       1.298740      -0.160323      -3.573852                                 
 H       1.115900       0.113329      -5.328856                                 
 H       3.375722      -0.617030      -5.733955                                 
 H       2.542937      -1.854102      -4.751836                                 
 H       3.650286      -1.091354      -2.752659                                 
 H       4.881497      -1.377521      -4.013820                                 
 H       5.064614       0.985080      -4.448707                                 
 H       5.247458       0.711435      -2.693709                                 
 C       1.834204       6.447877       3.279370                                 
 C       3.161257       5.989110       2.671578                                 
 C       3.751972       7.037878       1.727072                                 
 C       2.750666       7.472847       0.655075                                 
 C       1.423608       7.931609       1.262858                                 
 C       0.832885       6.882846       2.207365                                 
 H       2.026844       7.292037       3.938123                                 
 H       1.404795       5.621113       3.841187                                 
 H       3.869180       5.809249       3.477856                                 
 H       2.988377       5.073493       2.109974                                 
 H       4.037097       7.910424       2.311035                                 
 H       4.623968       6.611362       1.235704                                 
 H       2.558025       6.628689      -0.003693                                 
 H       3.180062       8.299611       0.093251                                 
 H       1.596484       8.847238       1.824472                                 
 H       0.715689       8.111476       0.456588                                 
 H       0.547763       6.010307       1.623396                                 
 H      -0.039099       7.309361       2.698740                                 
 C       5.847766      -5.402403       0.264128                                 
 C       5.272946      -5.157991      -1.132568                                 
 C       4.999401      -3.674470      -1.388185                                 
 C       4.128133      -3.055227      -0.293456                                 
 C       4.702949      -3.299644       1.103233                                 
 C       4.976494      -4.783165       1.358850                                 
 H       6.838949      -4.956803       0.315041                                 
 H       5.907361      -6.475540       0.432695                                 
 H       5.990036      -5.511459      -1.870434                                 
 H       4.336865      -5.704878      -1.223922                                 
 H       5.949735      -3.145640      -1.416925                                 
 H       4.483399      -3.575232      -2.340851                                 
 H       3.136955      -3.500838      -0.344378                                 
 H       4.068547      -1.982095      -0.462023                                 
 H       5.639037      -2.752745       1.194588                                 
 H       3.985874      -2.946169       1.841099                                 
 H       4.026160      -5.311996       1.387590                                 
 H       5.492500      -4.882398       2.311524                                 
 C      -3.482330      -4.409154       0.440309                                 
 C      -3.610711      -4.263592       1.957945                                 
 C      -3.905359      -5.601573       2.639114                                 
 C      -5.119535      -6.301984       2.025797                                 
 C      -4.991158      -6.447550       0.508154                                 
 C      -4.696510      -5.109572      -0.173001                                 
 H      -2.594014      -4.997927       0.221390                                 
 H      -3.395046      -3.417231       0.002017                                 
 H      -2.674291      -3.872559       2.350190                                 
 H      -4.426319      -3.576623       2.173617                                 
 H      -3.037423      -6.247785       2.526196                                 
 H      -4.105060      -5.418672       3.692860                                 
 H      -6.007852      -5.713211       2.244717                                 
 H      -5.206819      -7.293906       2.464089                                 
 H      -4.175546      -7.134515       0.292490                                 
 H      -5.927574      -6.838579       0.115917                                 
 H      -5.564445      -4.463359      -0.060083                                 
 H      -4.496809      -5.292473      -1.226747                                 
                                                                                
      -1.001119      -4.564184      -4.190413      -0.120000                    
       0.033890      -3.778748      -3.382483      -0.120000                    
       1.106813      -4.691163      -2.784691      -0.120000                    
       0.498099      -5.838028      -1.975274      -0.120000                    
      -0.536907      -6.623457      -2.783211      -0.120000                    
      -1.609830      -5.711042      -3.381003      -0.120000                    
      -0.513377      -4.979786      -5.069646       0.060000                    
      -1.798639      -3.886031      -4.486448       0.060000                    
       0.516479      -3.059803      -4.041163       0.060000                    
      -0.476208      -3.263950      -2.571038       0.060000                    
       1.696143      -5.112830      -3.596164       0.060000                    
       1.739599      -4.099022      -2.126947       0.060000                    
       0.010353      -5.422431      -1.096048       0.060000                    
       1.295611      -6.516177      -1.679238       0.060000                    
      -0.026809      -7.138255      -3.594656       0.060000                    
      -1.019499      -7.342411      -2.124523       0.060000                    
      -2.199172      -5.289375      -2.569536       0.060000                    
      -2.242619      -6.303188      -4.038754       0.060000                    
      -0.520203       0.749514       5.479425      -0.120000                    
      -1.598797       1.821992       5.314065      -0.120000                    
      -1.441554       2.595606       4.003410      -0.120000                    
      -0.032664       3.170078       3.842249      -0.120000                    
       1.045927       2.097594       4.007602      -0.120000                    
       0.888688       1.323987       5.318263      -0.120000                    
      -0.672184      -0.016209       4.721657       0.060000                    
      -0.608160       0.318445       6.474394       0.060000                    
      -2.573361       1.338454       5.317603       0.060000                    
      -1.522243       2.522786       6.142729       0.060000                    
      -1.638002       1.918860       3.174530       0.060000                    
      -2.154833       3.417153       3.996940       0.060000                    
       0.119318       3.935801       4.600017       0.060000                    
       0.055294       3.601147       2.847280       0.060000                    
       0.969377       1.396806       3.178945       0.060000                    
       2.020494       2.581138       4.004071       0.060000                    
       1.085135       2.000731       6.147144       0.060000                    
       1.601963       0.502434       5.324726       0.060000                    
      -6.951187      -0.345985       3.303640      -0.120000                    
      -6.053126      -1.396065       3.960700      -0.120000                    
      -4.677597      -0.830177       4.319490      -0.120000                    
      -3.999737      -0.166593       3.119015      -0.120000                    
      -4.897797       0.883487       2.461955      -0.120000                    
      -6.273318       0.317595       2.103164      -0.120000                    
      -7.184578       0.421151       4.038969       0.060000                    
      -7.862920      -0.832156       2.963174       0.060000                    
      -6.534457      -1.743971       4.872200       0.060000                    
      -5.918631      -2.222401       3.265895       0.060000                    
      -4.801419      -0.086445       5.103801       0.060000                    
      -4.046695      -1.645024       4.668381       0.060000                    
      -3.766346      -0.933728       2.383686       0.060000                    
      -3.087994       0.319574       3.459480       0.060000                    
      -5.032292       1.709823       3.156760       0.060000                    
      -4.416467       1.231393       1.550456       0.060000                    
      -6.149504      -0.426132       1.318854       0.060000                    
      -6.904220       1.132442       1.754273       0.060000                    
       1.744809       6.488981      -4.004884      -0.120000                    
       0.456172       6.310726      -3.199571      -0.120000                    
      -0.218258       4.967822      -3.487191      -0.120000                    
      -0.443252       4.748329      -4.984606      -0.120000                    
       0.845378       4.926572      -5.789920      -0.120000                    
       1.519814       6.269489      -5.502298      -0.120000                    
       2.477251       5.765235      -3.653631       0.060000                    
       2.112272       7.501680      -3.853313       0.060000                    
       0.698898       6.358035      -2.140103       0.060000                    
      -0.232963       7.109732      -3.464844       0.060000                    
       0.419557       4.170785      -3.110937       0.060000                    
      -1.182820       4.948402      -2.984185       0.060000                    
      -1.175698       5.472068      -5.335852       0.060000                    
      -0.810715       3.735630      -5.136178       0.060000                    
       1.534511       4.127583      -5.524645       0.060000                    
       0.602646       4.879275      -6.849393       0.060000                    
       0.881993       7.066513      -5.878554       0.060000                    
       2.484377       6.288908      -6.005305       0.060000                    
      -5.300346       4.844815       0.354771      -0.120000                    
      -4.412120       4.468550       1.542354      -0.120000                    
      -3.924364       5.701195       2.306368      -0.120000                    
      -3.247667       6.716944       1.383715      -0.120000                    
      -4.135908       7.093202       0.196131      -0.120000                    
      -4.623652       5.860558      -0.567891      -0.120000                    
      -6.222354       5.280139       0.734319       0.060000                    
      -5.515543       3.944806      -0.217345       0.060000                    
      -4.986917       3.843143       2.222096       0.060000                    
      -3.546210       3.924950       1.170435       0.060000                    
      -4.780021       6.177770       2.779998       0.060000                    
      -3.205913       5.382178       3.058578       0.060000                    
      -2.325663       6.281614       1.004159       0.060000                    
      -3.032476       7.616941       1.955829       0.060000                    
      -5.001810       7.636797       0.568049       0.060000                    
      -3.561103       7.718604      -0.483612       0.060000                    
      -3.767995       5.383984      -1.041521       0.060000                    
      -5.342106       6.179568      -1.320094       0.060000                    
       0.671419      -5.232528       6.577621      -0.120000                    
       0.359027      -3.780744       6.945755      -0.120000                    
      -0.445287      -3.072885       5.853487      -0.120000                    
       0.226303      -3.184927       4.483292      -0.120000                    
       0.538694      -4.636712       4.115160      -0.120000                    
       1.343009      -5.344570       5.207427      -0.120000                    
      -0.260351      -5.793734       6.555022       0.060000                    
       1.342200      -5.644977       7.328310       0.060000                    
      -0.221711      -3.772503       7.865709       0.060000                    
       1.297199      -3.248242       7.086963       0.060000                    
      -1.430882      -3.529973       5.796031       0.060000                    
      -0.532238      -2.019883       6.112962       0.060000                    
       1.158073      -2.623722       4.505892       0.060000                    
      -0.444478      -2.772478       3.732604       0.060000                    
      -0.399482      -5.169218       3.973943       0.060000                    
       1.119441      -4.644957       3.195204       0.060000                    
       2.328600      -4.887488       5.264875       0.060000                    
       1.429960      -6.397573       4.947952       0.060000                    
       7.494424       6.427986      -3.060613      -0.120000                    
       6.089120       6.040689      -2.595881      -0.120000                    
       5.134847       7.236656      -2.598067      -0.120000                    
       5.695372       8.418777      -1.804680      -0.120000                    
       7.100676       8.806073      -2.269413      -0.120000                    
       8.054954       7.610096      -2.267236      -0.120000                    
       7.449041       6.704983      -4.111753       0.060000                    
       8.153747       5.573480      -2.923707       0.060000                    
       5.696923       5.281769      -3.269551       0.060000                    
       6.153463       5.649130      -1.582867       0.060000                    
       4.975704       7.552614      -3.626898       0.060000                    
       4.193013       6.930775      -2.147298       0.060000                    
       5.740751       8.141773      -0.753548       0.060000                    
       5.036046       9.273277      -1.941594       0.060000                    
       7.036330       9.197628      -3.282434       0.060000                    
       7.492878       9.564983      -1.595751       0.060000                    
       8.214092       7.294148      -1.238396       0.060000                    
       8.996784       7.915988      -2.717995       0.060000                    
      -6.708349       2.871778      -4.948664      -0.120000                    
      -6.851781       4.239501      -5.619206      -0.120000                    
      -5.495169       4.904818      -5.859996      -0.120000                    
      -4.657733       4.978284      -4.581606      -0.120000                    
      -4.514301       3.610561      -3.911064      -0.120000                    
      -5.870914       2.945243      -3.670274      -0.120000                    
      -6.221018       2.192578      -5.644954       0.060000                    
      -7.699932       2.503702      -4.694035       0.060000                    
      -7.348730       4.106373      -6.577800       0.060000                    
      -7.444812       4.883133      -4.972890       0.060000                    
      -4.949395       4.323607      -6.600229       0.060000                    
      -5.663675       5.916225      -6.223809       0.060000                    
      -5.145068       5.657478      -3.885325       0.060000                    
      -3.666154       5.346354      -4.836243       0.060000                    
      -3.921273       2.966923      -4.557388       0.060000                    
      -4.017352       3.743688      -2.952470       0.060000                    
      -6.416687       3.526454      -2.930042       0.060000                    
      -5.702399       1.933831      -3.306462       0.060000                    
      -7.246193      -1.479401      -1.707702      -0.120000                    
      -7.486043      -0.089774      -2.301287      -0.120000                    
      -8.974042       0.190542      -2.520997      -0.120000                    
      -9.649075      -0.908531      -3.344040      -0.120000                    
      -9.409226      -2.298142      -2.750452      -0.120000                    
      -7.921230      -2.578465      -2.530736      -0.120000                    
      -7.652617      -1.501362      -0.698731       0.060000                    
      -6.175036      -1.668607      -1.687230       0.060000                    
      -7.089720       0.654899      -1.614312       0.060000                    
      -6.975435      -0.028356      -3.260040       0.060000                    
      -9.463717       0.249105      -1.551225       0.060000                    
      -9.075186       1.134544      -3.052392       0.060000                    
      -9.242650      -0.886570      -4.353010       0.060000                    
     -10.720236      -0.719316      -3.364502       0.060000                    
      -9.919837      -2.359567      -1.791692       0.060000                    
      -9.805553      -3.042819      -3.437435       0.060000                    
      -7.431555      -2.637028      -3.500508       0.060000                    
      -7.820086      -3.522465      -1.999354       0.060000                    
       0.932245     -10.457879       0.552123      -0.120000                    
       0.205275      -9.271036      -0.083339      -0.120000                    
       0.483870      -7.963313       0.660453      -0.120000                    
       0.189265      -8.081134       2.157237      -0.120000                    
       0.916235      -9.267978       2.792699      -0.120000                    
       0.637648     -10.575705       2.048905      -0.120000                    
       2.003321     -10.321689       0.418269       0.060000                    
       0.603542     -11.370825       0.060183       0.060000                    
       0.544828      -9.165357      -1.111494       0.060000                    
      -0.865032      -9.464532      -0.057415       0.060000                    
       1.533295      -7.706911       0.531783       0.060000                    
      -0.149129      -7.183652       0.241886       0.060000                    
      -0.881811      -8.217325       2.291091       0.060000                    
       0.517975      -7.168177       2.649178       0.060000                    
       1.986541      -9.074482       2.766775       0.060000                    
       0.576682      -9.373657       3.820854       0.060000                    
      -0.411773     -10.832100       2.177570       0.060000                    
       1.270638     -11.355362       2.467474       0.060000                    
      -1.067709      11.457119      -1.436558      -0.120000                    
      -0.468335      10.058619      -1.275605      -0.120000                    
       0.848504       9.908027      -2.039979      -0.120000                    
       0.706233      10.304797      -3.510803      -0.120000                    
       0.106889      11.703284      -3.671737      -0.120000                    
      -1.209960      11.853886      -2.907390      -0.120000                    
      -0.413961      12.174307      -0.944677       0.060000                    
      -2.053572      11.467937      -0.976637       0.060000                    
      -0.279342       9.880795      -0.219108       0.060000                    
      -1.178669       9.329580      -1.659830       0.060000                    
       1.594594      10.550495      -1.577157       0.060000                    
       1.162798       8.867659      -1.989395       0.060000                    
       0.052508       9.587614      -4.002698       0.060000                    
       1.692119      10.293984      -3.970738       0.060000                    
       0.817221      12.432327      -3.287539       0.060000                    
      -0.082105      11.881114      -4.728262       0.060000                    
      -1.956041      11.211413      -3.370214       0.060000                    
      -1.524243      12.894257      -2.957981       0.060000                    
       9.610936       8.494288       2.999251      -0.120000                    
       9.789312       6.976670       2.922708      -0.120000                    
       8.520996       6.274545       2.433408      -0.120000                    
       7.293888       6.666480       3.258974      -0.120000                    
       7.115523       8.184100       3.335509      -0.120000                    
       8.383840       8.886223       3.824823      -0.120000                    
       9.488914       8.881385       1.989839       0.060000                    
      10.494990       8.925279       3.464349       0.060000                    
      10.598228       6.756161       2.229491       0.060000                    
      10.031511       6.604519       3.915952       0.060000                    
       8.346480       6.554615       1.396703       0.060000                    
       8.665595       5.199241       2.514540       0.060000                    
       7.415922       6.279384       4.268392       0.060000                    
       6.409835       6.235496       2.793870       0.060000                    
       6.873325       8.556249       2.342279       0.060000                    
       6.306595       8.404606       4.028734       0.060000                    
       8.558343       8.606154       4.861523       0.060000                    
       8.239241       9.961528       3.743692       0.060000                    
       4.146890       2.565508       7.715657      -0.120000                    
       3.822295       3.917096       8.355023      -0.120000                    
       3.631998       5.015770       7.307290      -0.120000                    
       4.821134       5.106029       6.348722      -0.120000                    
       5.145728       3.754442       5.709355      -0.120000                    
       5.336029       2.655771       6.757096      -0.120000                    
       3.276155       2.226376       7.158451       0.060000                    
       4.389427       1.856915       8.504716       0.060000                    
       2.902142       3.819085       8.927069       0.060000                    
       4.644933       4.198961       9.008852       0.060000                    
       2.736434       4.794737       6.730453       0.060000                    
       3.525083       5.969711       7.819401       0.060000                    
       5.691872       5.445167       6.905936       0.060000                    
       4.578600       5.814627       5.559671       0.060000                    
       4.323095       3.472581       5.055535       0.060000                    
       6.065882       3.852452       5.137311       0.060000                    
       6.231593       2.876805       7.333934       0.060000                    
       5.442944       1.701831       6.244986       0.060000                    
       5.800657      -2.004265       4.553184      -0.120000                    
       4.608214      -2.704893       5.207511      -0.120000                    
       4.470121      -2.339724       6.686912      -0.120000                    