%nprocshared=4                                                                       
%mem=8GB                                                                             
#P pop=chelpg cam-b3lyp/gen scf=qc int=ultrafine charge td(nstates=10)               
                                                                                     
pNA CAM-B3LYP def2-TZVPD Single point - solvent def2-SV(P)                           
                                                                                     
0 1                                                                                  
 C       1.386341       0.000000       0.000000                                 
 C       0.000000       0.000000       0.000000                                 
 C      -0.712907       1.188984      -0.000000                                 
 C      -0.035635       2.384357       0.000131                                 
 C       1.365534       2.410943       0.000833                                 
 C       2.063239       1.195576       0.000133                                 
 H       1.918972      -0.938700       0.000854                                 
 H      -1.791888       1.163049       0.000837                                 
 H      -0.586620       3.315732      -0.002113                                 
 H       3.145392       1.202000      -0.002090                                 
 N      -0.713906      -1.260429       0.001744                                 
 O      -1.931758      -1.232720       0.002551                                 
 O      -0.063858      -2.290656       0.002518                                 
 N       2.037885       3.598040      -0.033161                                 
 H       1.540331       4.445798       0.174764                                 
 H       3.020819       3.607257       0.174736                                 
 C       4.623312      -2.162545       4.251903                                 
 C       6.018013      -1.543148       4.361604                                 
 C       6.025054      -0.070078       3.948070                                 
 C       5.412492       0.139117       2.561694                                 
 C       4.017791      -0.480279       2.451992                                 
 C       4.010750      -1.953349       2.865526                                 
 H       3.976418      -1.695850       4.991797                                 
 H       4.701728      -3.231250       4.439671                                 
 H       6.350395      -1.615749       5.394983                                 
 H       6.694076      -2.090843       3.708403                                 
 H       5.445776       0.497430       4.673352                                 
 H       7.054704       0.280961       3.929770                                 
 H       6.059381      -0.327564       1.821798                                 
 H       5.334074       1.207828       2.373918                                 
 H       3.341725       0.067423       3.105200                                 
 H       3.685395      -0.407669       1.418613                                 
 H       4.590013      -2.520849       2.140244                                 
 H       2.981085      -2.304379       2.883825                                 
 C       2.540219       7.206795       1.280430                                 
 C       1.118726       7.762356       1.172576                                 
 C       0.472989       7.427138      -0.173382                                 
 C       1.347802       7.858430      -1.352240                                 
 C       2.769301       7.302880      -1.244380                                 
 C       3.415030       7.638094       0.101577                                 
 H       2.488623       6.120165       1.295785                                 
 H       2.989119       7.576291       2.199956                                 
 H       0.514434       7.327698       1.965986                                 
 H       1.159281       8.844353       1.278845                                 
 H       0.321708       6.351136      -0.228044                                 
 H      -0.480912       7.946113      -0.240189                                 
 H       1.399395       8.945066      -1.367590                                 
 H       0.898911       7.488938      -2.271768                                 
 H       2.728740       6.220872      -1.350656                                 
 H       3.373581       7.737540      -2.037798                                 
 H       3.566319       8.714099       0.156238                                 
 H       4.368929       7.119117       0.168370                                 
 C      -5.259136       1.523771       4.312335                                 
 C      -4.244634       2.514945       4.886161                                 
 C      -3.831335       3.571089       3.859141                                 
 C      -3.341509       2.940722       2.553900                                 
 C      -4.356008       1.949544       1.980082                                 
 C      -4.769320       0.893401       3.007096                                 
 H      -6.189072       2.052951       4.115291                                 
 H      -5.422369       0.732404       5.040796                                 
 H      -4.694147       3.017462       5.739974                                 
 H      -3.358202       1.965262       5.195532                                 
 H      -4.692441       4.198954       3.640313                                 
 H      -3.025732       4.168934       4.280260                                 
 H      -2.411574       2.411543       2.750944                                 
 H      -3.178279       3.732073       1.825443                                 
 H      -5.242453       2.499228       1.670705                                 
 H      -3.906498       1.447032       1.126262                                 
 H      -3.908201       0.265533       3.225916                                 
 H      -5.574908       0.295546       2.585977                                 
 C       6.648185       2.642931      -2.548676                                 
 C       5.696971       1.650684      -1.876722                                 
 C       4.749668       0.993831      -2.882764                                 
 C       3.998481       2.028628      -3.722988                                 
 C       4.949695       3.020876      -4.394943                                 
 C       5.897011       3.677727      -3.388894                                 
 H       7.323615       2.091143      -3.199040                                 
 H       7.209780       3.163851      -1.776136                                 
 H       6.287689       0.873355      -1.396660                                 
 H       5.103342       2.184273      -1.137425                                 
 H       5.333601       0.362531      -3.549191                                 
 H       4.023098       0.395656      -2.336805                                 
 H       3.323052       2.580417      -3.072624                                 
 H       3.436887       1.507709      -4.495529                                 
 H       5.543325       2.487287      -5.134239                                 
 H       4.358978       3.798205      -4.875005                                 
 H       5.313065       4.309029      -2.722473                                 
 H       6.623568       4.275903      -3.934859                                 
 C       0.869829       0.074483      -4.153359                                 
 C       0.594558      -1.241867      -3.423771                                 
 C       0.008366      -2.302851      -4.357404                                 
 C      -1.226223      -1.791650      -5.102679                                 
 C      -0.950961      -0.475303      -5.832266                                 
 C      -0.364760       0.585686      -4.898620                                 
 H       1.668528      -0.087849      -4.874051                                 
 H       1.168286       0.821898      -3.421349                                 
 H       1.531410      -1.616315      -3.016767                                 
 H      -0.116424      -1.053066      -2.622187                                 
 H       0.765539      -2.579786      -5.087893                                 
 H      -0.277682      -3.168555      -3.763745                                 
 H      -2.024922      -1.629316      -4.381973                                 
 H      -1.524677      -2.539070      -5.834681                                 
 H      -0.239969      -0.664098      -6.633837                                 
 H      -1.887805      -0.100851      -6.239271                                 
 H      -1.121942       0.862616      -4.168145                                 
 H      -0.078712       1.451389      -5.492293                                 
 C      -3.451272      -4.642655       2.657480                                 
 C      -3.843835      -3.164091       2.634218                                 
 C      -5.355208      -2.970172       2.772627                                 
 C      -6.134896      -3.786491       1.739808                                 
 C      -5.742332      -5.265056       1.763070                                 
 C      -4.230959      -5.458974       1.624662                                 
 H      -3.661306      -5.042649       3.647203                                 
 H      -2.389400      -4.724031       2.435172                                 
 H      -3.351347      -2.660442       3.463342                                 
 H      -3.523433      -2.734126       1.687564                                 
 H      -5.656987      -3.289506       3.767905                                 
 H      -5.585163      -1.916585       2.628484                                 
 H      -5.924864      -3.386492       0.750077                                 
 H      -7.196765      -3.705123       1.962110                                 
 H      -6.062747      -5.695019       2.709717                                 
 H      -6.234824      -5.768699       0.933939                                 
 H      -3.929181      -5.139640       0.629383                                 
 H      -4.001014      -6.512565       1.768805                                 
                                                                                
       6.238773      -3.180946      -0.282737      -0.120000                    
       5.309807      -2.200815      -1.001962      -0.120000                    
       4.445364      -2.897909      -2.054506      -0.120000                    
       5.286214      -3.716228      -3.036516      -0.120000                    
       6.215180      -4.696359      -2.317289      -0.120000                    
       7.079626      -3.999272      -1.264739      -0.120000                    
       5.632814      -3.863779       0.309065       0.060000                    
       6.908818      -2.615800       0.361703       0.060000                    
       4.655845      -1.737908      -0.266055       0.060000                    
       5.916923      -1.445031      -1.495761       0.060000                    
       3.752939      -3.567042      -1.548088       0.060000                    
       3.898480      -2.140595      -2.612238       0.060000                    
       5.892177      -3.033401      -3.628310       0.060000                    
       4.616170      -4.281372      -3.680942       0.060000                    
       5.608058      -5.452153      -1.823483       0.060000                    
       6.869143      -5.159266      -3.053197       0.060000                    
       7.772039      -3.330136      -1.771163       0.060000                    
       7.626510      -4.756585      -0.707006       0.060000                    
      -5.905421       2.391313      -2.523026      -0.120000                    
      -5.726428       3.256936      -3.771848      -0.120000                    
      -5.467719       2.413178      -5.021726      -0.120000                    
      -4.302323       1.441271      -4.826225      -0.120000                    
      -4.481321       0.575660      -3.577405      -0.120000                    
      -4.740025       1.419405      -2.327525      -0.120000                    
      -6.823521       1.816845      -2.626800       0.060000                    
      -5.964247       3.042920      -1.653812       0.060000                    
      -6.633772       3.837112      -3.925734       0.060000                    
      -4.876914       3.918837      -3.617281       0.060000                    
      -6.364720       1.839840      -5.245954       0.060000                    
      -5.229596       3.079771      -5.847975       0.060000                    
      -3.384225       2.015746      -4.722445       0.060000                    
      -4.243487       0.789668      -5.695440       0.060000                    
      -5.330821      -0.086250      -3.731971       0.060000                    
      -3.573975      -0.004524      -3.423525       0.060000                    
      -3.843029       1.992756      -2.103298       0.060000                    
      -4.978141       0.752823      -1.501271       0.060000                    
       1.504467       6.166918       5.784756      -0.120000                    
       2.413469       5.499115       6.818481      -0.120000                    
       3.625881       4.829717       6.168111      -0.120000                    
       3.218289       3.863452       5.054050      -0.120000                    
       2.309286       4.531253       4.020310      -0.120000                    
       1.096877       5.200645       4.670688      -0.120000                    
       2.039185       7.003874       5.340622       0.060000                    
       0.605383       6.517430       6.287157       0.060000                    
       2.766512       6.258319       7.513130       0.060000                    
       1.839991       4.740931       7.347579       0.060000                    
       4.262860       5.602236       5.742527       0.060000                    
       4.166284       4.272915       6.930788       0.060000                    
       2.683570       3.026495       5.498169       0.060000                    
       4.117375       3.512934       4.551643       0.060000                    
       2.882776       5.289435       3.491220       0.060000                    
       1.956243       3.772052       3.325677       0.060000                    
       0.459895       4.428134       5.096280       0.060000                    
       0.556471       5.757455       3.908018       0.060000                    
       2.675800      -6.686581       2.150885      -0.120000                    
       2.945322      -6.994046       3.625231      -0.120000                    
       1.696528      -6.802345       4.488232      -0.120000                    
       1.073797      -5.418063       4.296040      -0.120000                    
       0.804282      -5.110586       2.821700      -0.120000                    
       2.053075      -5.302286       1.958699      -0.120000                    
       1.988920      -7.434111       1.759749       0.060000                    
       3.619277      -6.721451       1.610320       0.060000                    
       3.271564      -8.028378       3.710712       0.060000                    
       3.722355      -6.322394       3.984092       0.060000                    
       0.962504      -7.555513       4.209735       0.060000                    
       1.975638      -6.915879       5.533650       0.060000                    
       1.760674      -4.670525       4.687183       0.060000                    
       0.130327      -5.383181       4.836610       0.060000                    
       0.027238      -5.782241       2.462840       0.060000                    
       0.478027      -4.076252       2.736212       0.060000                    
       2.787100      -4.549119       2.237196       0.060000                    
       1.773965      -5.188753       0.913281       0.060000                    
      -5.704342       7.800043      -1.988693      -0.120000                    
      -4.332760       8.109283      -2.592031      -0.120000                    
      -3.473613       6.851558      -2.736899      -0.120000                    
      -3.359873       6.080187      -1.420452      -0.120000                    
      -4.731455       5.770947      -0.817114      -0.120000                    
      -5.590600       7.028667      -0.672238      -0.120000                    
      -6.267981       7.196962      -2.697414       0.060000                    
      -6.220032       8.738810      -1.798122       0.060000                    
      -4.477100       8.547104      -3.577443       0.060000                    
      -3.815972       8.810078      -1.939750       0.060000                    
      -3.929710       6.202819      -3.481699       0.060000                    
      -2.475677       7.146876      -3.054133       0.060000                    
      -2.796246       6.683272      -0.711724       0.060000                    
      -2.844192       5.141418      -1.611022       0.060000                    
      -5.248242       5.070153      -1.469394       0.060000                    
      -4.587114       5.333126       0.168298       0.060000                    
      -5.134505       7.677411       0.072554       0.060000                    
      -6.588538       6.733354      -0.355012       0.060000                    
      -0.411030      -7.668883      -1.049823      -0.120000                    
      -1.415136      -8.707412      -1.553951      -0.120000                    
      -2.258452      -8.173441      -2.713563      -0.120000                    
      -2.933344      -6.844675      -2.367326      -0.120000                    
      -1.929237      -5.806145      -1.863197      -0.120000                    
      -1.085921      -6.340117      -0.703586      -0.120000                    
       0.326631      -7.491357      -1.829567       0.060000                    
       0.071359      -8.057239      -0.155382       0.060000                    
      -0.867505      -9.582827      -1.896575       0.060000                    
      -2.079670      -8.974670      -0.735025       0.060000                    
      -1.609840      -8.020274      -3.573467       0.060000                    
      -3.029543      -8.904302      -2.947973       0.060000                    
      -3.671005      -7.022200      -1.587581       0.060000                    
      -3.415733      -6.456318      -3.261767       0.060000                    
      -1.264713      -5.538891      -2.682122       0.060000                    
      -2.476868      -4.930730      -1.520573       0.060000                    
      -1.734534      -6.493281       0.156320       0.060000                    
      -0.314830      -5.609256      -0.469176       0.060000                    
      -0.319266       4.235497      -6.949278      -0.120000                    
       1.083722       4.643838      -6.495667      -0.120000                    
       1.342946       4.275896      -5.033314      -0.120000                    
       0.258055       4.823060      -4.103489      -0.120000                    
      -1.144934       4.414719      -4.557100      -0.120000                    
      -1.404155       4.782655      -6.019445      -0.120000                    
      -0.380798       3.149275      -6.953949       0.060000                    
      -0.488954       4.627352      -7.949911       0.060000                    
       1.813554       4.130394      -7.117986       0.060000                    
       1.185000       5.721401      -6.606204       0.060000                    
       1.361552       3.191661      -4.945659       0.060000                    
       2.301251       4.695175      -4.733961       0.060000                    
       0.319590       5.909276      -4.098810       0.060000                    
       0.427736       4.431196      -3.102848       0.060000                    
      -1.246209       3.337151      -4.446556       0.060000                    
      -1.874775       4.928159      -3.934781       0.060000                    
      -1.422770       5.866887      -6.107099       0.060000                    
      -2.362471       4.363380      -6.318791       0.060000                    
       0.130987      -1.263764       6.130686      -0.120000                    
       0.722297       0.048294       6.650107      -0.120000                    
      -0.190469       1.241991       6.362049      -0.120000                    
      -0.569173       1.330175       4.882246      -0.120000                    
      -1.160483       0.018117       4.362824      -0.120000                    
      -0.247718      -1.175581       4.650881      -0.120000                    
      -0.763775      -1.493507       6.705426       0.060000                    
       0.871144      -2.051562       6.253791       0.060000                    
       0.858306      -0.033612       7.726390       0.060000                    
       1.679248       0.216271       6.160504       0.060000                    
      -1.100669       1.133036       6.947973       0.060000                    
       0.331688       2.154441       6.642244       0.060000                    
       0.325591       1.559910       4.307499       0.060000                    
      -1.309328       2.117964       4.759134       0.060000                    
      -2.117432      -0.149866       4.852435       0.060000                    
      -1.296492       0.100022       3.286541       0.060000                    
       0.662485      -1.066633       4.064953       0.060000                    
      -0.769871      -2.088039       4.370680       0.060000                    
       7.963073       5.169272       0.918789      -0.120000                    
       6.788899       5.716629       1.732778      -0.120000                    
       6.953663       5.445983       3.229637      -0.120000                    
       7.211555       3.965976       3.519650      -0.120000                    
       8.385730       3.418619       2.705660      -0.120000                    
       8.220965       3.689264       1.208801      -0.120000                    
       8.856852       5.734530       1.174384       0.060000                    
       7.735191       5.281686      -0.139072       0.060000                    
       6.729988       6.791927       1.578333       0.060000                    
       5.874766       5.235704       1.391097       0.060000                    
       7.798744       6.024586       3.596631       0.060000                    
       6.040761       5.746252       3.739784       0.060000                    
       6.317777       3.400718       3.264055       0.060000                    
       7.439437       3.853562       4.577510       0.060000                    
       9.299862       3.899544       3.047342       0.060000                    
       8.444641       2.343321       2.860105       0.060000                    
       7.375875       3.110657       0.841808       0.060000                    
       9.133867       3.388996       0.698654       0.060000                    
      -5.038009      -4.335072      -6.896306      -0.120000                    
      -5.339868      -5.598365      -6.087687      -0.120000                    
      -6.120041      -5.287403      -4.808770      -0.120000                    
      -5.429454      -4.216332      -3.962082      -0.120000                    
      -5.127598      -2.953033      -4.770709      -0.120000                    
      -4.347431      -3.264005      -6.049617      -0.120000                    
      -5.975475      -3.930355      -7.271885       0.060000                    
      -4.383030      -4.600011      -7.723621       0.060000                    
      -5.934092      -6.271051      -6.702538       0.060000                    
      -4.398109      -6.069654      -5.814514       0.060000                    
      -7.109652      -4.928631      -5.083738       0.060000                    
      -6.199274      -6.198637      -4.219646       0.060000                    
      -4.491993      -4.621036      -3.586504       0.060000                    
      -6.084436      -3.951387      -3.134774       0.060000                    
      -6.069357      -2.481744      -5.043882       0.060000                    
      -4.533383      -2.280351      -4.155857       0.060000                    
      -3.357823      -3.622772      -5.774657       0.060000                    
      -4.268192      -2.352762      -6.638750       0.060000                    
       8.115066       7.308572      -2.385112      -0.120000                    
       9.357391       7.945735      -3.010882      -0.120000                    
       9.058396       9.325402      -3.600905      -0.120000                    
       7.880085       9.288737      -4.576221      -0.120000                    
       6.637778       8.651584      -3.950439      -0.120000                    
       6.936752       7.271912      -3.360436      -0.120000                    
       7.826709       7.892087      -1.513301       0.060000                    
       8.356815       6.288738      -2.093441       0.060000                    
      10.117875       8.054439      -2.240585       0.060000                    
       9.716898       7.297522      -3.807287       0.060000                    
       8.815560      10.006130      -2.787712       0.060000                    
       9.940348       9.674009      -4.134155       0.060000                    
       8.168438       8.705228      -5.448040       0.060000                    
       7.638330      10.308581      -4.867908       0.060000                    
       6.278248       9.299800      -3.154047       0.060000                    
       5.877274       8.542875      -4.720756       0.060000                    
       7.179582       6.591198      -4.173631       0.060000                    
       6.054799       6.923313      -2.827181       0.060000                    
      -0.931881      -6.206623      -6.128396      -0.120000                    
       0.366744      -6.599349      -5.421106      -0.120000                    
       1.430547      -5.504750      -5.526885      -0.120000                    
       1.673396      -5.079461      -6.976389      -0.120000                    
       0.374779      -4.686731      -7.683681      -0.120000                    
      -0.689035      -5.781329      -7.577909      -0.120000                    
      -1.381533      -5.373486      -5.592337       0.060000                    
      -1.602375      -7.063341      -6.125133       0.060000                    
       0.150754      -6.773746      -4.369217       0.060000                    
       0.753451      -7.505685      -5.882259       0.060000                    
       1.094764      -4.637827      -4.961796       0.060000                    
       2.363028      -5.885325      -5.115359       0.060000                    
       2.123044      -5.912594      -7.512457       0.060000                    
       2.343899      -4.222739      -6.979653       0.060000                    
      -0.011937      -3.780401      -7.222540       0.060000                    
       0.590770      -4.512336      -8.735570       0.060000                    
      -0.353250      -6.648257      -8.142989       0.060000                    
      -1.621515      -5.400760      -7.989439       0.060000                    
       9.377145      -1.376770       1.832116      -0.120000                    
       9.244015      -0.375751       0.682717      -0.120000                    
      10.603278       0.161683       0.230410      -0.120000                    
      11.410952       0.733225       1.397487      -0.120000                    
      11.544080      -0.267795       2.546885      -0.120000                    
      10.184818      -0.805229       2.999193      -0.120000                    
       9.882864      -2.266092       1.461874       0.060000                    
       8.381396      -1.630217       2.189567       0.060000                    
       8.769640      -0.874680      -0.159707       0.060000                    
       8.633914       0.460128       1.018521       0.060000                    
      11.168045      -0.653462      -0.217051       0.060000                    
      10.439366       0.952127      -0.498991       0.060000                    
      10.905234       1.622538       1.767723       0.060000                    
      12.406702       0.986664       1.040030       0.060000                    
      12.154183      -1.103673       2.211082       0.060000                    
      12.018461       0.231121       3.389311       0.060000                    
       9.620056       0.009903       3.446655       0.060000                    
      10.348735      -1.595686       3.728596       0.060000                    
     -10.646658       2.226229       0.434908      -0.120000                    
      -9.738382       1.775094      -0.710695      -0.120000                    
      -9.232223       0.345009      -0.511646      -0.120000                    