%nprocshared=4                                                                       
%mem=8GB                                                                             
#P pop=chelpg cam-b3lyp/gen scf=qc int=ultrafine charge td(nstates=10)               
                                                                                     
pNA CAM-B3LYP def2-TZVPD Single point - solvent def2-SV(P)                           
                                                                                     
0 1                                                                                  
 C       1.386341       0.000000       0.000000                                 
 C       0.000000       0.000000       0.000000                                 
 C      -0.712907       1.188984      -0.000000                                 
 C      -0.035635       2.384357       0.000131                                 
 C       1.365534       2.410943       0.000833                                 
 C       2.063239       1.195576       0.000133                                 
 H       1.918972      -0.938700       0.000854                                 
 H      -1.791888       1.163049       0.000837                                 
 H      -0.586620       3.315732      -0.002113                                 
 H       3.145392       1.202000      -0.002090                                 
 N      -0.713906      -1.260429       0.001744                                 
 O      -1.931758      -1.232720       0.002551                                 
 O      -0.063858      -2.290656       0.002518                                 
 N       2.037885       3.598040      -0.033161                                 
 H       1.540331       4.445798       0.174764                                 
 H       3.020819       3.607257       0.174736                                 
 C       1.013198       8.196130       3.037058                                 
 C      -0.273216       7.947898       3.827240                                 
 C      -0.237474       6.614063       4.575996                                 
 C       0.100123       5.444886       3.648628                                 
 C       1.386537       5.693126       2.858441                                 
 C       1.350796       7.026953       2.109691                                 
 H       1.832684       8.330130       3.740021                                 
 H       0.883243       9.092094       2.433757                                 
 H      -0.396548       8.750078       4.551726                                 
 H      -1.110651       7.934443       3.132888                                 
 H       0.521688       6.671824       5.353135                                 
 H      -1.216151       6.436620       5.016986                                 
 H      -0.719362       5.310887       2.945667                                 
 H       0.230079       4.548922       4.251930                                 
 H       2.223982       5.706582       3.552792                                 
 H       1.509870       4.890944       2.133969                                 
 H       0.591634       6.969193       1.332552                                 
 H       2.329472       7.204405       1.668695                                 
 C      -3.502272       3.505518       1.535438                                 
 C      -4.079390       4.586845       2.451139                                 
 C      -3.794354       4.300213       3.926807                                 
 C      -4.250385       2.898539       4.337042                                 
 C      -3.673267       1.817211       3.421341                                 
 C      -3.958303       2.103844       1.945674                                 
 H      -2.416442       3.547488       1.589270                                 
 H      -3.837272       3.696263       0.518118                                 
 H      -3.628355       5.541512       2.189007                                 
 H      -5.156981       4.626211       2.306476                                 
 H      -2.722635       4.380539       4.095885                                 
 H      -4.327597       5.030293       4.532068                                 
 H      -5.336215       2.856569       4.283211                                 
 H      -3.915385       2.707794       5.354362                                 
 H      -2.595686       1.777846       3.566005                                 
 H      -4.124302       0.862545       3.683475                                 
 H      -5.030022       2.023518       1.776596                                 
 H      -3.425060       1.373765       1.340413                                 
 C      -3.979926       0.760107      -2.205993                                 
 C      -3.168651       2.054245      -2.295208                                 
 C      -3.411146       2.792951      -3.612994                                 
 C      -3.184369       1.889507      -4.826806                                 
 C      -3.995654       0.595369      -4.737590                                 
 C      -3.753150      -0.143343      -3.419812                                 
 H      -5.036405       1.014862      -2.154779                                 
 H      -3.677830       0.221364      -1.310349                                 
 H      -3.460104       2.704656      -1.473304                                 
 H      -2.111421       1.807394      -2.224487                                 
 H      -4.440192       3.145723      -3.629560                                 
 H      -2.723076       3.633639      -3.671968                                 
 H      -2.127890       1.634751      -4.878019                                 
 H      -3.486465       2.428250      -5.722450                                 
 H      -5.052874       0.842220      -4.808312                                 
 H      -3.704200      -0.055042      -5.559495                                 
 H      -2.724113      -0.496115      -3.403246                                 
 H      -4.441228      -0.984034      -3.360825                                 
 C      -1.619410       6.307005      -0.865824                                 
 C      -0.564101       5.950343      -1.914635                                 
 C      -0.587430       6.914851      -3.102150                                 
 C      -1.984580       7.037600      -3.713689                                 
 C      -3.039888       7.394262      -2.664878                                 
 C      -3.016559       6.429755      -1.477363                                 
 H      -1.352592       7.260195      -0.414281                                 
 H      -1.637930       5.523855      -0.110912                                 
 H       0.418118       5.995835      -1.449027                                 
 H      -0.762498       4.944777      -2.279541                                 
 H      -0.270823       7.897306      -2.758382                                 
 H       0.094443       6.544087      -3.864623                                 
 H      -2.251397       6.084404      -4.165240                                 
 H      -1.966059       7.820750      -4.468601                                 
 H      -2.841491       8.399829      -2.299972                                 
 H      -4.022108       7.348764      -3.130494                                 
 H      -3.333168       5.447300      -1.821145                                 
 H      -3.698433       6.800518      -0.714890                                 
 C       1.004698      -2.969272      -3.182589                                 
 C      -0.014753      -2.750764      -4.302348                                 
 C      -1.398359      -3.287822      -3.930574                                 
 C      -1.344378      -4.749606      -3.481938                                 
 C      -0.324916      -4.968121      -2.362174                                 
 C       1.058679      -4.431056      -2.733953                                 
 H       0.722516      -2.354342      -2.330620                                 
 H       1.988428      -2.680846      -3.546827                                 
 H      -0.096424      -1.683099      -4.494739                                 
 H       0.331463      -3.269437      -5.193871                                 
 H      -1.796327      -2.688187      -3.114679                                 
 H      -2.045144      -3.215421      -4.802417                                 
 H      -1.062186      -5.364534      -4.333907                                 
 H      -2.328098      -5.038031      -3.117700                                 
 H      -0.671134      -4.449446      -1.470665                                 
 H      -0.243246      -6.035792      -2.169791                                 
 H       1.456658      -5.030699      -3.549843                                 
 H       1.705474      -4.503470      -1.862113                                 
 C       4.883775       1.841882      -2.388020                                 
 C       5.235701       1.026239      -3.633736                                 
 C       6.748126       0.893774      -3.823598                                 
 C       7.448657       2.253972      -3.812397                                 
 C       7.096741       3.069616      -2.566682                                 
 C       5.584307       3.202081      -2.376819                                 
 H       5.194608       1.283488      -1.507544                                 
 H       3.808232       2.004615      -2.371389                                 
 H       4.809926       0.030592      -3.529146                                 
 H       4.818278       1.525506      -4.505608                                 
 H       7.148786       0.289651      -3.012341                                 
 H       6.937477       0.413074      -4.781093                                 
 H       7.137824       2.812361      -4.692881                                 
 H       8.524199       2.091234      -3.829036                                 
 H       7.514154       2.570349      -1.694810                                 
 H       7.522517       4.065264      -2.671272                                 
 H       5.183646       3.806197      -3.188083                                 
 H       5.394954       3.682775      -1.419332                                 
                                                                                
       2.747201      -5.725969       0.998142      -0.120000                    
       1.758209      -4.914613       1.837422      -0.120000                    
       2.469694      -3.943790       2.782035      -0.120000                    
       3.513614      -4.649667       3.649773      -0.120000                    
       4.502607      -5.461030       2.810500      -0.120000                    
       3.791122      -6.431845       1.865880      -0.120000                    
       3.260584      -5.050925       0.316661       0.060000                    
       2.194023      -6.477715       0.439153       0.060000                    
       1.120428      -4.342610       1.166827       0.060000                    
       1.160275      -5.602429       2.431597       0.060000                    
       2.969647      -3.182841       2.186530       0.060000                    
       1.728076      -3.486232       3.433452       0.060000                    
       3.000232      -5.324710       4.331255       0.060000                    
       4.066803      -3.897920       4.208762       0.060000                    
       5.100551      -4.773206       2.216318       0.060000                    
       5.140388      -6.033026       3.481089       0.060000                    
       3.291168      -7.192794       2.461385       0.060000                    
       4.532740      -6.889403       1.214463       0.060000                    
      -1.937493      -3.436748       5.351977      -0.120000                    
      -2.238996      -2.024645       5.857915      -0.120000                    
      -2.401842      -1.026979       4.709375      -0.120000                    
      -1.205866      -1.050810       3.755406      -0.120000                    
      -0.904363      -2.462900       3.249470      -0.120000                    
      -0.741516      -3.460580       4.398008      -0.120000                    
      -2.811630      -3.810601       4.823018       0.060000                    
      -1.713340      -4.071773       6.206455       0.060000                    
      -3.164111      -2.050359       6.429878       0.060000                    
      -1.414647      -1.697704       6.488163       0.060000                    
      -3.298360      -1.284666       4.149477       0.060000                    
      -2.492826      -0.026842       5.127924       0.060000                    
      -0.331727      -0.676952       4.284373       0.060000                    
      -1.430018      -0.415786       2.900928       0.060000                    
      -1.728711      -2.789855       2.619220       0.060000                    
       0.020753      -2.437200       2.677506       0.060000                    
       0.155011      -3.202878       4.957907       0.060000                    
      -0.650533      -4.460717       3.979459       0.060000                    
      -5.368022      -3.088744       2.403263      -0.120000                    
      -6.636631      -2.298564       2.730630      -0.120000                    
      -7.633690      -2.308899       1.570120      -0.120000                    
      -6.993011      -1.847091       0.259700      -0.120000                    
      -5.724410      -2.637279      -0.067660      -0.120000                    
      -4.727341      -2.626936       1.092843      -0.120000                    
      -5.627974      -4.141179       2.311204       0.060000                    
      -4.651784      -2.946110       3.209614       0.060000                    
      -7.111104      -2.747500       3.600661       0.060000                    
      -6.359514      -1.267876       2.941716       0.060000                    
      -8.002859      -3.323711       1.437953       0.060000                    
      -8.454787      -1.637116       1.811315       0.060000                    
      -6.733057      -0.794664       0.351766       0.060000                    
      -7.709257      -1.989733      -0.546644       0.060000                    
      -6.001518      -3.667953      -0.278744       0.060000                    
      -5.249928      -2.188334      -0.937698       0.060000                    
      -4.358172      -1.612131       1.225017       0.060000                    
      -3.906244      -3.298727       0.851654       0.060000                    
       5.592669       2.290407       2.683987      -0.120000                    
       6.755081       1.348833       2.362830      -0.120000                    
       6.505422      -0.068119       2.883359      -0.120000                    
       6.154288      -0.078256       4.372507      -0.120000                    
       4.991866       0.863316       4.693665      -0.120000                    
       5.241524       2.280269       4.173136      -0.120000                    
       4.719786       1.970573       2.118804       0.060000                    
       5.875946       3.301807       2.400480       0.060000                    
       6.879362       1.305623       1.282888       0.060000                    
       7.656891       1.737409       2.831225       0.060000                    
       5.676584      -0.501626       2.327742       0.060000                    
       7.408153      -0.657033       2.735010       0.060000                    
       7.027162       0.241569       4.937697       0.060000                    
       5.871011      -1.089658       4.656014       0.060000                    
       4.090065       0.474748       4.225277       0.060000                    
       4.867584       0.906527       5.773607       0.060000                    
       6.070363       2.713767       4.728759       0.060000                    
       4.338804       2.869183       4.321484       0.060000                    
       7.047613      -4.405583      -2.011924      -0.120000                    
       5.872571      -4.676986      -2.953498      -0.120000                    
       4.981965      -3.445214      -3.128359      -0.120000                    
       4.520455      -2.876079      -1.785198      -0.120000                    
       5.695497      -2.604677      -0.843623      -0.120000                    
       6.586104      -3.836448      -0.668763      -0.120000                    
       7.712698      -3.685785      -2.484413       0.060000                    
       7.571778      -5.341639      -1.831228       0.060000                    
       6.265755      -4.962725      -3.926815       0.060000                    
       5.272623      -5.483513      -2.537260       0.060000                    
       5.547478      -2.679179      -3.654695       0.060000                    
       4.104517      -3.729737      -3.705301       0.060000                    
       3.855360      -3.595878      -1.312708       0.060000                    
       3.996290      -1.940023      -1.965893       0.060000                    
       6.295446      -1.798148      -1.259862       0.060000                    
       5.302313      -2.318931       0.129701       0.060000                    
       6.020590      -4.602484      -0.142426       0.060000                    
       7.463551      -3.551925      -0.091821       0.060000                    
       1.558437       3.398947      -6.543214      -0.120000                    
       1.007851       3.932385      -5.219139      -0.120000                    
       1.440420       3.071805      -4.030314      -0.120000                    
       1.101115       1.594447      -4.238457      -0.120000                    
       1.651691       1.061009      -5.562532      -0.120000                    
       1.219132       1.921590      -6.751357      -0.120000                    
       2.640742       3.509898      -6.539649       0.060000                    
       1.122864       3.973790      -7.357710       0.060000                    
       1.380164       4.943702      -5.069982       0.060000                    
      -0.078941       3.934037      -5.269938       0.060000                    
       2.517005       3.167052      -3.905627       0.060000                    
       0.924727       3.424818      -3.139702       0.060000                    
       0.018801       1.483488      -4.242016       0.060000                    
       1.536679       1.019603      -3.423946       0.060000                    
       2.738493       1.059357      -5.511734       0.060000                    
       1.279379       0.049685      -5.711683       0.060000                    
       0.142547       1.826342      -6.876045       0.060000                    
       1.734817       1.568568      -7.641963       0.060000                    
       6.417482       8.056320       1.186775      -0.120000                    
       7.715402       7.606774       1.860763      -0.120000                    
       7.534998       6.301657       2.638630      -0.120000                    
       6.372205       6.381067       3.629893      -0.120000                    
       5.074286       6.830599       2.955904      -0.120000                    
       5.254689       8.135724       2.178031      -0.120000                    
       6.163023       7.339213       0.409144       0.060000                    
       6.573641       9.042319       0.754363       0.060000                    
       8.470487       7.452378       1.092924       0.060000                    
       8.034534       8.382919       2.553161       0.060000                    
       7.334483       5.499998       1.930959       0.060000                    
       8.449579       6.097085       3.191264       0.060000                    
       6.626665       7.098160       4.407523       0.060000                    
       6.216047       5.395060       4.062312       0.060000                    
       4.755154       6.054454       2.263505       0.060000                    
       4.319202       6.985003       3.723737       0.060000                    
       5.455206       8.937376       2.885708       0.060000                    
       4.340108       8.340297       1.625397       0.060000                    
      -3.100786      -8.255417      -0.353995      -0.120000                    
      -4.128084      -7.513942       0.503774      -0.120000                    
      -3.495251      -6.363846       1.289796      -0.120000                    
      -2.289577      -6.825725       2.110790      -0.120000                    
      -1.262279      -7.567199       1.253021      -0.120000                    
      -1.895113      -8.717281       0.467001      -0.120000                    
      -2.752218      -7.584685      -1.136486       0.060000                    
      -3.578905      -9.129288      -0.791374       0.060000                    
      -4.897295      -7.106978      -0.149120       0.060000                    
      -4.565233      -8.217806       1.208851       0.060000                    
      -3.165741      -5.601991       0.586540       0.060000                    
      -4.241155      -5.954292       1.967748       0.060000                    
      -2.638146      -7.496449       2.893274       0.060000                    
      -1.811459      -5.951845       2.548163       0.060000                    
      -0.825130      -6.863321       0.547945       0.060000                    
      -0.493058      -7.974154       1.905908       0.060000                    
      -2.224622      -9.479144       1.170263       0.060000                    
      -1.149207      -9.126848      -0.210953       0.060000                    
       9.842637      -1.445619      -0.063789      -0.120000                    
      10.179228      -2.165772      -1.371049      -0.120000                    
      10.999938      -1.285254      -2.315570      -0.120000                    
      10.331555       0.068694      -2.562804      -0.120000                    
       9.994966       0.788847      -1.255545      -0.120000                    
       9.174254      -0.091656      -0.311022      -0.120000                    
      10.764465      -1.282200       0.490477       0.060000                    
       9.161934      -2.069443       0.511558       0.060000                    
      10.756576      -3.057890      -1.137873       0.060000                    
       9.250064      -2.436806      -1.867903       0.060000                    
      11.977529      -1.114171      -1.869845       0.060000                    
      11.104478      -1.800427      -3.268143       0.060000                    
       9.409728      -0.094725      -3.117070       0.060000                    
      11.012259       0.692518      -3.138152       0.060000                    
      10.924129       1.059888      -0.758683       0.060000                    
       9.417617       1.680972      -1.488713       0.060000                    
       8.196664      -0.262747      -0.756741       0.060000                    
       9.069714       0.423502       0.641549       0.060000                    
       8.975852       8.185257      -4.167152      -0.120000                    
       8.202901       8.855125      -3.029314      -0.120000                    
       7.000135       8.020574      -2.584430      -0.120000                    
       6.089683       7.655680      -3.758717      -0.120000                    
       6.862644       6.985818      -4.896547      -0.120000                    
       8.065400       7.820370      -5.341431      -0.120000                    
       9.434712       7.274927      -3.787044       0.060000                    
       9.740279       8.873864      -4.520792       0.060000                    
       8.872198       8.980234      -2.180764       0.060000                    
       7.845846       9.823212      -3.374238       0.060000                    
       7.363758       7.102365      -2.128035       0.060000                    
       6.423998       8.597548      -1.864068       0.060000                    
       5.630833       8.566016      -4.138817       0.060000                    
       5.325266       6.967071      -3.405064       0.060000                    
       7.219701       6.017724      -4.551618       0.060000                    
       6.193346       6.860709      -5.745097       0.060000                    
       7.701778       8.738570      -5.797820       0.060000                    
       8.641547       7.243396      -6.061794       0.060000                    
       3.451982      -8.145700      -2.680195      -0.120000                    
       2.070931      -8.133119      -2.021841      -0.120000                    
       1.004435      -8.770251      -2.914978      -0.120000                    
       0.979120      -8.146457      -4.311861      -0.120000                    
       2.360180      -8.159038      -4.970216      -0.120000                    
       3.426666      -7.521905      -4.077078      -0.120000                    
       3.786807      -9.177293      -2.766148       0.060000                    
       4.139111      -7.576551      -2.057710       0.060000                    
       2.124501      -8.693212      -1.090712       0.060000                    
       1.788694      -7.100893      -1.825602       0.060000                    
       1.221298      -9.831901      -3.012174       0.060000                    
       0.030826      -8.624882      -2.451635       0.060000                    
       0.644295      -7.114864      -4.225909       0.060000                    
       0.292000      -8.715611      -4.934355       0.060000                    
       2.642407      -9.191270      -5.166462       0.060000                    
       2.306599      -7.598951      -5.901353       0.060000                    
       3.209803      -6.460255      -3.979882       0.060000                    
       4.400276      -7.667276      -4.540422       0.060000                    
       3.870473      11.953989       0.106986      -0.120000                    
       3.917453      10.682696      -0.743043      -0.120000                    
       3.664836      10.973691      -2.223761      -0.120000                    
       2.370805      11.760699      -2.440719      -0.120000                    
       2.323834      13.031988      -1.590711      -0.120000                    
       2.576421      12.740998      -0.109983      -0.120000                    
       4.712184      12.586622      -0.166822       0.060000                    
       3.934947      11.673363       1.156115       0.060000                    
       4.902264      10.231990      -0.640400       0.060000                    
       3.150226       9.998149      -0.387454       0.060000                    
       4.496655      11.559031      -2.609903       0.060000                    
       3.589844      10.027787      -2.756055       0.060000                    
       1.529083      11.128061      -2.166931       0.060000                    
       2.306320      12.041327      -3.489861       0.060000                    
       3.091040      13.716550      -1.946299       0.060000                    
       1.339002      13.482707      -1.693351       0.060000                    
       1.744612      12.155666       0.276152       0.060000                    
       2.651414      13.686903       0.422311       0.060000                    
       1.990152       4.259699       7.975300      -0.120000                    
       0.491080       4.038690       7.763505      -0.120000                    
       0.036440       2.668737       8.271021      -0.120000                    
       0.872513       1.531907       7.679741      -0.120000                    
       2.371574       1.752922       7.891544      -0.120000                    
       2.826215       3.122869       7.384020      -0.120000                    
       2.185800       4.315585       9.044077       0.060000                    
       2.276356       5.190426       7.490133       0.060000                    
      -0.053879       4.808619       8.305515       0.060000                    
       0.277077       4.103527       6.698768       0.060000                    
       0.137871       2.647981       9.354018       0.060000                    
      -1.003116       2.520066       7.986472       0.060000                    
       0.676865       1.476022       6.610964       0.060000                    
       0.586309       0.601181       8.164908       0.060000                    
       2.585579       1.688085       8.956282       0.060000                    
       2.916534       0.982992       7.349534       0.060000                    
       2.724794       3.143625       6.301023       0.060000                    
       3.865780       3.271540       7.668568       0.060000                    
       3.477507       8.074050      -7.029776      -0.120000                    
       2.655490       7.067991      -7.837847      -0.120000                    
       1.210708       7.532712      -8.031810      -0.120000                    