%nprocshared=4                                                                       
%mem=8GB                                                                             
#P pop=chelpg cam-b3lyp/gen scf=qc int=ultrafine charge td(nstates=10)               
                                                                                     
pNA CAM-B3LYP def2-TZVPD Single point - solvent def2-SV(P)                           
                                                                                     
0 1                                                                                  
 C       1.386341       0.000000       0.000000                                 
 C       0.000000       0.000000       0.000000                                 
 C      -0.712907       1.188984      -0.000000                                 
 C      -0.035635       2.384357       0.000131                                 
 C       1.365534       2.410943       0.000833                                 
 C       2.063239       1.195576       0.000133                                 
 H       1.918972      -0.938700       0.000854                                 
 H      -1.791888       1.163049       0.000837                                 
 H      -0.586620       3.315732      -0.002113                                 
 H       3.145392       1.202000      -0.002090                                 
 N      -0.713906      -1.260429       0.001744                                 
 O      -1.931758      -1.232720       0.002551                                 
 O      -0.063858      -2.290656       0.002518                                 
 N       2.037885       3.598040      -0.033161                                 
 H       1.540331       4.445798       0.174764                                 
 H       3.020819       3.607257       0.174736                                 
 C       5.485955       2.353603       2.584933                                 
 C       5.259756       3.575516       1.692442                                 
 C       4.949789       4.831959       2.508739                                 
 C       3.790741       4.611246       3.482867                                 
 C       4.016948       3.389332       4.375364                                 
 C       4.326911       2.132903       3.559058                                 
 H       6.397872       2.505926       3.158420                                 
 H       5.580671       1.473650       1.952243                                 
 H       6.161675       3.752829       1.110428                                 
 H       4.418581       3.373295       1.032715                                 
 H       5.835871       5.103741       3.078497                                 
 H       4.680744       5.633669       1.824211                                 
 H       2.878836       4.458926       2.909378                                 
 H       3.696023       5.491209       4.115561                                 
 H       4.858113       3.591554       5.035085                                 
 H       3.115026       3.212028       4.957381                                 
 H       3.440823       1.861117       2.989306                                 
 H       4.595949       1.331189       4.243593                                 
 C       5.252005       1.157485      -2.351371                                 
 C       6.468407       2.058846      -2.572318                                 
 C       7.592490       1.332816      -3.314178                                 
 C       7.971170       0.015722      -2.633821                                 
 C       6.754768      -0.885639      -2.412875                                 
 C       5.630685      -0.159610      -1.671014                                 
 H       4.805023       0.933655      -3.317677                                 
 H       4.539926       1.683308      -1.718941                                 
 H       6.161018       2.919129      -3.163080                                 
 H       6.843033       2.381070      -1.603054                                 
 H       7.258305       1.117493      -4.326892                                 
 H       8.468489       1.977755      -3.335031                                 
 H       8.418155       0.239543      -1.667519                                 
 H       8.683249      -0.510101      -3.266251                                 
 H       6.380144      -1.207872      -3.382142                                 
 H       7.062157      -1.745922      -1.822113                                 
 H       5.964872       0.055705      -0.658304                                 
 H       4.754678      -0.804547      -1.650167                                 
 C       2.733183      -3.465682       4.422353                                 
 C       1.578367      -2.901625       5.252496                                 
 C       0.668691      -1.991400       4.424818                                 
 C       1.455223      -0.888569       3.713375                                 
 C       2.610039      -1.452626       2.883233                                 
 C       3.519706      -2.362851       3.710905                                 
 H       2.325378      -4.140667       3.672836                                 
 H       3.408639      -4.001903       5.085504                                 
 H       0.986448      -3.731096       5.633499                                 
 H       1.992101      -2.323586       6.076128                                 
 H       0.161391      -2.595346       3.675487                                 
 H      -0.056693      -1.527358       5.089784                                 
 H       1.863020      -0.213583       4.462886                                 
 H       0.779767      -0.352348       3.050225                                 
 H       2.196305      -2.030665       2.059601                                 
 H       3.201950      -0.623154       2.502225                                 
 H       4.027020      -1.758901       4.460234                                 
 H       4.245100      -2.826893       3.045944                                 
 C       1.162293       8.670267      -0.706608                                 
 C       0.920654       7.403522      -1.529917                                 
 C      -0.560232       7.209836      -1.862282                                 
 C      -1.439479       7.256478      -0.610995                                 
 C      -1.197842       8.523232       0.212317                                 
 C       0.283052       8.716918       0.544688                                 
 H       0.933346       9.535701      -1.324849                                 
 H       2.205711       8.691459      -0.399305                                 
 H       1.478454       7.482061      -2.460655                                 
 H       1.263294       6.545130      -0.955932                                 
 H      -0.872151       8.004877      -2.536244                                 
 H      -0.685510       6.240011      -2.339241                                 
 H      -1.210529       6.391058       0.007242                                 
 H      -2.482899       7.235296      -0.918294                                 
 H      -1.540480       9.381616      -0.361670                                 
 H      -1.755631       8.444684       1.143058                                 
 H       0.594970       7.921873       1.218634                                 
 H       0.408323       9.686743       1.021642                                 
 C       4.895975       6.817252      -1.282076                                 
 C       5.528879       5.447495      -1.535264                                 
 C       6.985713       5.394596      -1.070662                                 
 C       7.819409       6.530258      -1.667477                                 
 C       7.186495       7.900024      -1.414291                                 
 C       5.729671       7.952914      -1.878891                                 
 H       4.817697       6.970877      -0.207857                                 
 H       3.908615       6.833796      -1.738557                                 
 H       4.962306       4.696337      -0.989078                                 
 H       5.496854       5.241699      -2.603127                                 
 H       7.008097       5.479629       0.013720                                 
 H       7.416217       4.445704      -1.383726                                 
 H       7.897687       6.376634      -2.741697                                 
 H       8.806767       6.513724      -1.210994                                 
 H       7.218530       8.105810      -0.346426                                 
 H       7.753078       8.651174      -1.960476                                 
 H       5.707280       7.867881      -2.963279                                 
 H       5.299159       8.901806      -1.565834                                 
 C       0.224037       3.345590       4.437846                                 
 C      -0.320784       3.521467       3.018986                                 
 C      -1.228812       4.747318       2.901624                                 
 C      -2.345909       4.735520       3.947104                                 
 C      -1.801080       4.559643       5.365970                                 
 C      -0.893060       3.333793       5.483326                                 
 H       0.896574       4.172225       4.656998                                 
 H       0.759074       2.399807       4.490090                                 
 H       0.518076       3.643629       2.337081                                 
 H      -0.895797       2.636366       2.755141                                 
 H      -0.626286       5.641493       3.046677                                 
 H      -1.679487       4.752576       1.911392                                 
 H      -3.018448       3.908895       3.727956                                 
 H      -2.880946       5.681304       3.894860                                 
 H      -1.226076       5.444744       5.629809                                 
 H      -2.639942       4.437490       6.047879                                 
 H      -1.495587       2.439616       5.338274                                 
 H      -0.442378       3.328534       6.473564                                 
                                                                                
       3.005354       4.702352      -5.239829      -0.120000                    
       3.339394       3.277435      -5.685849      -0.120000                    
       2.150947       2.329398      -5.513092      -0.120000                    
       1.589066       2.367734      -4.090472      -0.120000                    
       1.255026       3.792652      -3.644453      -0.120000                    
       2.443473       4.740689      -3.817209      -0.120000                    
       2.261323       5.113762      -5.918690       0.060000                    
       3.914839       5.298510      -5.270609       0.060000                    
       3.617316       3.298420      -6.737441       0.060000                    
       4.167719       2.909823      -5.083852       0.060000                    
       1.365782       2.626419      -6.205137       0.060000                    
       2.480808       1.315412      -5.729384       0.060000                    
       2.333088       1.956325      -3.411618       0.060000                    
       0.679583       1.771567      -4.059696       0.060000                    
       0.426695       4.160255      -4.246459       0.060000                    
       0.977104       3.771662      -2.592877       0.060000                    
       3.228630       4.443669      -3.125170       0.060000                    
       2.113606       5.754665      -3.600927       0.060000                    
      -5.214377      -2.958385       0.933542      -0.120000                    
      -5.267130      -4.319462       0.236651      -0.120000                    
      -5.018856      -4.202619      -1.268564      -0.120000                    
      -5.953328      -3.185326      -1.926514      -0.120000                    
      -5.900573      -1.824258      -1.229626      -0.120000                    
      -6.148853      -1.941106       0.275597      -0.120000                    
      -4.195773      -2.579848       0.880521       0.060000                    
      -5.515638      -3.087029       1.970967       0.060000                    
      -4.500351      -4.960247       0.666815       0.060000                    
      -6.252684      -4.752635       0.393866       0.060000                    
      -3.990798      -3.884109      -1.427680       0.060000                    
      -5.187352      -5.175614      -1.725250       0.060000                    
      -6.971935      -3.563876      -1.873488       0.060000                    
      -5.652072      -3.056687      -2.963931       0.060000                    
      -4.915024      -1.391090      -1.386833       0.060000                    
      -6.667352      -1.183474      -1.659789       0.060000                    
      -7.176897      -2.259612       0.434711       0.060000                    
      -5.980353      -0.968098       0.732279       0.060000                    
       3.258539      -4.347633      -0.382267      -0.120000                    
       3.203978      -5.591758       0.506620      -0.120000                    
       4.371131      -5.641849       1.494668      -0.120000                    
       5.723033      -5.497868       0.792814      -0.120000                    
       5.777593      -4.253743      -0.096074      -0.120000                    
       4.610440      -4.203652      -1.084122      -0.120000                    
       3.093754      -3.469415       0.238406       0.060000                    
       2.480720      -4.426424      -1.138774       0.060000                    
       2.272810      -5.576722       1.068994       0.060000                    
       3.247436      -6.474567      -0.127800       0.060000                    
       4.259901      -4.826019       2.205773       0.060000                    
       4.348078      -6.598854       2.011733       0.060000                    
       5.887817      -6.376086       0.172140       0.060000                    
       6.500851      -5.419077       1.549321       0.060000                    
       5.734136      -3.370934       0.538347       0.060000                    
       6.708761      -4.268779      -0.658447       0.060000                    
       4.721669      -5.019473      -1.795223       0.060000                    
       4.633493      -3.246647      -1.601187       0.060000                    
      -5.344951       2.488117      -0.654415      -0.120000                    
      -5.371473       3.948475      -1.110052      -0.120000                    
      -4.446321       4.828681      -0.267213      -0.120000                    
      -4.730249       4.690167       1.229852      -0.120000                    
      -4.703737       3.229819       1.685487      -0.120000                    
      -5.628880       2.349603       0.842650      -0.120000                    
      -4.358828       2.077395      -0.860701       0.060000                    
      -6.105391       1.938288      -1.204823       0.060000                    
      -5.046021       3.995099      -2.147114       0.060000                    
      -6.388474       4.323478      -1.016459       0.060000                    
      -3.416930       4.530782      -0.454884       0.060000                    
      -4.597097       5.867016      -0.555038       0.060000                    
      -5.716383       5.100900       1.436135       0.060000                    
      -3.969812       5.240005       1.780263       0.060000                    
      -3.686736       2.854816       1.591893       0.060000                    
      -5.029180       3.183185       2.722551       0.060000                    
      -6.658280       2.647513       1.030318       0.060000                    
      -5.478119       1.311275       1.130480       0.060000                    
      -3.215763       2.618201      -4.676879      -0.120000                    
      -3.291517       1.828421      -3.368681      -0.120000                    
      -2.431734       0.563567      -3.412252      -0.120000                    
      -2.755341      -0.308014      -4.627431      -0.120000                    
      -2.679588       0.481766      -5.935629      -0.120000                    
      -3.539364       1.746623      -5.892066      -0.120000                    
      -2.206908       3.009845      -4.788692       0.060000                    
      -3.934438       3.433816      -4.632753       0.060000                    
      -2.936665       2.462268      -2.558820       0.060000                    
      -4.326205       1.539705      -3.196237       0.060000                    
      -1.385104       0.856178      -3.463078       0.060000                    
      -2.618410      -0.014972      -2.509902       0.060000                    
      -3.764196      -0.699659      -4.515617       0.060000                    
      -2.036667      -1.123630      -4.671557       0.060000                    
      -1.644907       0.770482      -6.108079       0.060000                    
      -3.034442      -0.152077      -6.745503       0.060000                    
      -4.586003       1.454012      -5.841245       0.060000                    
      -3.352693       2.325150      -6.794412       0.060000                    
       3.217715      -2.173494      -5.190527      -0.120000                    
       2.270057      -1.214165      -4.467691      -0.120000                    
       1.408369      -1.934353      -3.428551      -0.120000                    
       0.665634      -3.129760      -4.028817      -0.120000                    
       1.613284      -4.089087      -4.751660      -0.120000                    
       2.474971      -3.368891      -5.790796      -0.120000                    
       3.950448      -2.542584      -4.476012       0.060000                    
       3.713336      -1.632950      -5.994094       0.060000                    
       2.862943      -0.455134      -3.961832       0.060000                    
       1.614601      -0.752789      -5.203329       0.060000                    
       2.053901      -2.291873      -2.629111       0.060000                    
       0.676281      -1.231432      -3.036568       0.060000                    
      -0.067107      -2.760669      -4.743338       0.060000                    
       0.170013      -3.670303      -3.225250       0.060000                    
       2.268738      -4.550455      -4.016018       0.060000                    
       1.020401      -4.848123      -5.257505       0.060000                    
       1.829449      -3.011380      -6.590234       0.060000                    
       3.207058      -4.071812      -6.182779       0.060000                    
      -4.130218       1.082661       4.899134      -0.120000                    
      -2.874664       0.618546       4.158116      -0.120000                    
      -3.123946      -0.657632       3.351726      -0.120000                    
      -3.726278      -1.770665       4.211599      -0.120000                    
      -4.981832      -1.306550       4.952617      -0.120000                    
      -4.732551      -0.030363       5.759010      -0.120000                    
      -4.871004       1.395181       4.166151       0.060000                    
      -3.864199       1.916128       5.545746       0.060000                    
      -2.562923       1.405978       3.475235       0.060000                    
      -2.092866       0.421101       4.888537       0.060000                    
      -3.816189      -0.428953       2.544153       0.060000                    
      -2.175063      -1.004861       2.948346       0.060000                    
      -2.985486      -2.083182       4.944575       0.060000                    
      -3.992308      -2.604123       3.564986       0.060000                    
      -5.763632      -1.109096       4.222200       0.060000                    
      -5.293572      -2.093982       5.635499       0.060000                    
      -4.040303      -0.259038       6.566576       0.060000                    
      -5.681435       0.316866       6.162391       0.060000                    
      -0.454336      -6.725217      -1.858548      -0.120000                    
       0.761144      -7.236959      -2.634182      -0.120000                    
       0.697313      -8.747726      -2.867888      -0.120000                    
       0.481704      -9.520744      -1.565231      -0.120000                    
      -0.733776      -9.009003      -0.789597      -0.120000                    
      -0.669945      -7.498235      -0.555891      -0.120000                    
      -1.338488      -6.840904      -2.481870       0.060000                    
      -0.296804      -5.675927      -1.618132       0.060000                    
       0.793201      -6.736841      -3.599792       0.060000                    
       1.658740      -7.011290      -2.062333       0.060000                    
      -0.131305      -8.960869      -3.539878       0.060000                    
       1.636332      -9.070692      -3.312439       0.060000                    
       1.365856      -9.405059      -0.941910       0.060000                    
       0.324172     -10.570035      -1.805647       0.060000                    
      -1.631371      -9.234673      -1.361446       0.060000                    
      -0.765833      -9.509122       0.176014       0.060000                    
       0.158681      -7.285099       0.116088       0.060000                    
      -1.608972      -7.175271      -0.111346       0.060000                    
       1.884037       7.176196       5.720459      -0.120000                    
       1.469010       8.011458       6.933317      -0.120000                    
       0.090331       8.648024       6.746091      -0.120000                    
      -0.001086       9.444852       5.443118      -0.120000                    
       0.413935       8.609585       4.230268      -0.120000                    
       1.792620       7.973025       4.417487      -0.120000                    
       1.222868       6.315194       5.648552       0.060000                    
       2.913182       6.851279       5.857770       0.060000                    
       1.437244       7.363973       7.806984       0.060000                    
       2.200996       8.803454       7.077003       0.060000                    
      -0.657270       7.857952       6.723660       0.060000                    
      -0.097563       9.321753       7.579472       0.060000                    
       0.660083      10.305859       5.515041       0.060000                    
      -1.030237       9.769764       5.305814       0.060000                    
      -0.318053       7.817599       4.086586       0.060000                    
       0.445700       9.257079       3.356603       0.060000                    
       2.540215       8.763092       4.439925       0.060000                    
       1.980516       7.299292       3.584119       0.060000                    
       8.724327      -1.133848       3.481365      -0.120000                    
       8.362663       0.007130       2.528348      -0.120000                    
       8.056156      -0.499791       1.117634      -0.120000                    
       9.184393      -1.372750       0.564392      -0.120000                    
       9.546057      -2.513728       1.517409      -0.120000                    
       9.852559      -2.006811       2.928130      -0.120000                    
       7.843993      -1.755858       3.628951       0.060000                    
       9.047659      -0.706703       4.428249       0.060000                    
       7.481853       0.516196       2.913859       0.060000                    
       9.203432       0.695605       2.475342       0.060000                    
       7.143610      -1.091197       1.151346       0.060000                    
       7.926033       0.357674       0.460728       0.060000                    
      10.064722      -0.750745       0.416814       0.060000                    
       8.861061      -1.799895      -0.382491       0.060000                    
       8.705284      -3.202208       1.570422       0.060000                    
      10.426867      -3.022794       1.131898       0.060000                    
      10.765110      -1.415402       2.894412       0.060000                    
       9.982687      -2.864273       3.585030       0.060000                    
      -3.217530      -4.207850      -7.490983      -0.120000                    
      -2.802810      -3.480989      -6.210126      -0.120000                    
      -2.529594      -4.454324      -5.061655      -0.120000                    
      -3.703645      -5.406672      -4.825727      -0.120000                    
      -4.118365      -6.133532      -6.106584      -0.120000                    
      -4.391575      -5.160192      -7.255063      -0.120000                    
      -2.369344      -4.784766      -7.853545       0.060000                    
      -3.513901      -3.467157      -8.230678       0.060000                    
      -1.895240      -2.915205      -6.409698       0.060000                    
      -3.607588      -2.811317      -5.914268       0.060000                    
      -1.648281      -5.043080      -5.307129       0.060000                    
      -2.359148      -3.880795      -4.152962       0.060000                    
      -4.551830      -4.829755      -4.463165       0.060000                    
      -3.407269      -6.147359      -4.086040       0.060000                    
      -3.313595      -6.803205      -6.402449       0.060000                    
      -5.025937      -6.699311      -5.907026       0.060000                    
      -5.272894      -4.571441      -7.009582       0.060000                    
      -4.562022      -5.733723      -8.163756       0.060000                    
       6.006066       8.539960       2.887152      -0.120000                    
       6.706651       9.125074       4.115057      -0.120000                    
       5.856509      10.193906       4.804889      -0.120000                    
       5.403235      11.282976       3.830476      -0.120000                    
       4.702651      10.697864       2.602571      -0.120000                    
       5.552794       9.629032       1.912739      -0.120000                    
       5.131623       7.983567       3.217963       0.060000                    
       6.700751       7.879864       2.372137       0.060000                    
       6.896278       8.321198       4.823188       0.060000                    
       7.643899       9.577540       3.797963       0.060000                    
       4.974892       9.717213       5.228133       0.060000                    
       6.449796      10.655972       5.591187       0.060000                    
       6.277682      11.839366       3.499678       0.060000                    
       4.708560      11.943074       4.345497       0.060000                    
       3.765402      10.245398       2.919666       0.060000                    
       4.513023      11.501740       1.894441       0.060000                    
       6.434410      10.105723       1.489496       0.060000                    
       4.959506       9.166965       1.126442       0.060000                    
      -0.870106       8.200994      -6.241481      -0.120000                    
      -1.317969       7.029551      -5.365105      -0.120000                    
      -1.738362       5.817729      -6.199234      -0.120000                    
      -2.789099       6.181784      -7.250159      -0.120000                    
      -2.341238       7.353237      -8.126532      -0.120000                    
      -1.920845       8.565058      -7.292403      -0.120000                    
       0.049540       7.921981      -6.751488       0.060000                    
      -0.700752       9.066775      -5.604750       0.060000                    
      -0.489230       6.739026      -4.722964       0.060000                    
      -2.166737       7.349426      -4.764308       0.060000                    
      -0.860577       5.423838      -6.707148       0.060000                    
      -2.158116       5.066347      -5.533743       0.060000                    
      -3.708753       6.460797      -6.740158       0.060000                    
      -2.958449       5.316017      -7.886895       0.060000                    
      -1.492470       7.033361      -8.727327       0.060000                    
      -3.169970       7.643757      -8.768683       0.060000                    
      -2.798638       8.958951      -6.784495       0.060000                    
      -1.501089       9.316431      -7.957896       0.060000                    
       6.528052      -1.261086       7.147660      -0.120000                    
       5.317822      -0.562448       6.524674      -0.120000                    
       4.891386       0.668910       7.326460      -0.120000                    