%nprocshared=4                                                                       
%mem=8GB                                                                             
#P pop=chelpg cam-b3lyp/gen scf=qc int=ultrafine charge td(nstates=10)               
                                                                                     
pNA CAM-B3LYP def2-TZVPD Single point - solvent def2-SV(P)                           
                                                                                     
0 1                                                                                  
 C       1.386341       0.000000       0.000000                                 
 C       0.000000       0.000000       0.000000                                 
 C      -0.712907       1.188984      -0.000000                                 
 C      -0.035635       2.384357       0.000131                                 
 C       1.365534       2.410943       0.000833                                 
 C       2.063239       1.195576       0.000133                                 
 H       1.918972      -0.938700       0.000854                                 
 H      -1.791888       1.163049       0.000837                                 
 H      -0.586620       3.315732      -0.002113                                 
 H       3.145392       1.202000      -0.002090                                 
 N      -0.713906      -1.260429       0.001744                                 
 O      -1.931758      -1.232720       0.002551                                 
 O      -0.063858      -2.290656       0.002518                                 
 N       2.037885       3.598040      -0.033161                                 
 H       1.540331       4.445798       0.174764                                 
 H       3.020819       3.607257       0.174736                                 
 C       5.171598       3.817341       1.584416                                 
 C       5.872494       3.922457       0.228465                                 
 C       6.970580       4.987893       0.232006                                 
 C       6.452350       6.343742       0.715856                                 
 C       5.751446       6.238626       2.071812                                 
 C       4.653360       5.173190       2.068272                                 
 H       5.882358       3.436137       2.314605                                 
 H       4.328122       3.137026       1.488029                                 
 H       6.322541       2.960085      -0.005807                                 
 H       5.133803       4.187031      -0.525195                                 
 H       7.768060       4.663046       0.896956                                 
 H       7.347836       5.101686      -0.782121                                 
 H       5.741590       6.724946      -0.014333                                 
 H       7.295816       7.024066       0.812244                                 
 H       6.490135       5.974061       2.825467                                 
 H       5.301407       7.200997       2.306079                                 
 H       3.855880       5.498037       1.403322                                 
 H       4.276104       5.059397       3.082399                                 
 C       0.550158       5.971135      -2.973496                                 
 C       0.578876       6.135986      -4.494315                                 
 C       1.696622       5.313643      -5.138856                                 
 C       3.059064       5.602219      -4.505262                                 
 C       3.030339       5.437371      -2.984454                                 
 C       1.912585       6.259716      -2.339907                                 
 H       0.268179       4.946603      -2.740062                                 
 H      -0.178773       6.666175      -2.562152                                 
 H      -0.374844       5.803087      -4.898225                                 
 H       0.741404       7.186215      -4.727194                                 
 H       1.469900       4.257464      -5.009818                                 
 H       1.745526       5.562565      -6.196878                                 
 H       3.341042       6.626760      -4.738700                                 
 H       3.787994       4.907187      -4.916610                                 
 H       2.867817       4.387146      -2.751568                                 
 H       3.984067       5.770266      -2.580532                                 
 H       2.139321       7.315898      -2.468944                                 
 H       1.863697       6.010788      -1.281879                                 
 C       4.815679      -2.902296       1.145806                                 
 C       3.440762      -3.572658       1.178409                                 
 C       3.147517      -4.341979      -0.111219                                 
 C       3.329836      -3.468332      -1.354008                                 
 C       4.704753      -2.797970      -1.386612                                 
 C       4.997990      -2.028648      -0.096978                                 
 H       5.580013      -3.676559       1.141622                                 
 H       4.918078      -2.275755       2.029284                                 
 H       3.413641      -4.269997       2.013043                                 
 H       2.681761      -2.803431       1.304567                                 
 H       3.831403      -5.185647      -0.175935                                 
 H       2.117930      -4.692356      -0.080549                                 
 H       2.565500      -2.694063      -1.349812                                 
 H       3.227435      -4.094867      -2.237474                                 
 H       5.463746      -3.567197      -1.512764                                 
 H       4.731874      -2.100631      -2.221246                                 
 H       4.314105      -1.184980      -0.032262                                 
 H       6.027577      -1.678271      -0.127648                                 
 C      -5.480966       4.230227       1.205532                                 
 C      -4.101643       4.338390       1.858738                                 
 C      -3.247693       5.433540       1.216511                                 
 C      -3.151567       5.269299      -0.301625                                 
 C      -4.530892       5.161144      -0.954835                                 
 C      -5.384832       4.065986      -0.312610                                 
 H      -6.040473       5.137777       1.422290                                 
 H      -5.993645       3.363482       1.617213                                 
 H      -4.233532       4.573586       2.912702                                 
 H      -3.587898       3.385998       1.746022                                 
 H      -3.699528       6.399050       1.433860                                 
 H      -2.245002       5.383226       1.635802                                 
 H      -2.592060       4.361748      -0.518383                                 
 H      -2.638881       6.136043      -0.713312                                 
 H      -5.044635       6.113528      -0.842115                                 
 H      -4.399003       4.925949      -2.008799                                 
 H      -4.933005       3.100476      -0.529954                                 
 H      -6.387532       4.116301      -0.731896                                 
 C      -1.302527       3.803074       5.330660                                 
 C      -1.206997       2.771879       4.204423                                 
 C       0.235750       2.562377       3.740107                                 
 C       0.915698       3.881642       3.368410                                 
 C       0.820177       4.912836       4.494641                                 
 C      -0.622573       5.122344       4.958970                                 
 H      -0.815432       3.398066       6.215170                                 
 H      -2.353049       3.998814       5.534695                                 
 H      -1.596572       1.823238       4.567617                                 
 H      -1.796324       3.123445       3.360184                                 
 H       0.796937       2.097515       4.547933                                 
 H       0.228883       1.916118       2.864863                                 
 H       0.428604       4.286651       2.483901                                 
 H       1.966226       3.685908       3.164382                                 
 H       1.409502       4.561280       5.338876                                 
 H       1.209743       5.861478       4.131453                                 
 H      -1.183765       5.587201       4.151137                                 
 H      -0.615705       5.768604       5.834215                                 
 C      -4.619291       0.374953       5.055903                                 
 C      -4.851196       0.905050       3.639567                                 
 C      -5.101410      -0.224750       2.638591                                 
 C      -3.997217      -1.283051       2.680813                                 
 C      -3.765316      -1.813161       4.097147                                 
 C      -3.515103      -0.683352       5.098117                                 
 H      -5.543572      -0.072433       5.415399                                 
 H      -4.328848       1.206074       5.695034                                 
 H      -5.721025       1.558449       3.650891                                 
 H      -3.968047       1.457847       3.326264                                 
 H      -6.048917      -0.700994       2.881558                                 
 H      -5.138135       0.199580       1.637447                                 
 H      -3.072939      -0.835678       2.321314                                 
 H      -4.287657      -2.114181       2.041687                                 
 H      -4.648459      -2.365954       4.410456                                 
 H      -2.895494      -2.466559       4.085828                                 
 H      -2.567588      -0.207112       4.855162                                 
 H      -3.478369      -1.107686       6.099273                                 
                                                                                
      -3.540979       1.652733      -5.234344      -0.120000                    
      -2.173531       0.971148      -5.314197      -0.120000                    
      -1.351230       1.185399      -4.041821      -0.120000                    
      -1.232780       2.666918      -3.678467      -0.120000                    
      -2.600221       3.348511      -3.598625      -0.120000                    
      -3.422528       3.134253      -4.870990      -0.120000                    
      -4.134092       1.153847      -4.470801       0.060000                    
      -4.027644       1.570382      -6.203834       0.060000                    
      -2.325096      -0.096988      -5.454412       0.060000                    
      -1.625723       1.388333      -6.156531       0.060000                    
      -1.838786       0.663959      -3.220842       0.060000                    
      -0.352068       0.785876      -4.202237       0.060000                    
      -0.639668       3.165813      -4.442015       0.060000                    
      -0.746108       2.749277      -2.708988       0.060000                    
      -3.148027       2.931317      -2.756285       0.060000                    
      -2.448656       4.416647      -3.458410       0.060000                    
      -2.934980       3.655696      -5.691981       0.060000                    
      -4.421693       3.533783      -4.710578       0.060000                    
      -1.240394      -3.253758      -5.259276      -0.120000                    
      -0.842335      -3.641231      -3.833680      -0.120000                    
       0.670604      -3.562277      -3.619622      -0.120000                    
       1.440796      -4.367029      -4.668516      -0.120000                    
       1.042731      -3.979559      -6.094120      -0.120000                    
      -0.470207      -4.058514      -6.308177      -0.120000                    
      -1.025765      -2.197201      -5.405195       0.060000                    
      -2.303944      -3.443941      -5.387198       0.060000                    
      -1.327777      -2.958647      -3.139470       0.060000                    
      -1.166924      -4.662834      -3.647583       0.060000                    
       0.977312      -2.520587      -3.686462       0.060000                    
       0.903682      -3.961801      -2.634870       0.060000                    
       1.226167      -5.423585      -4.522598       0.060000                    
       2.504338      -4.176841      -4.540605       0.060000                    
       1.367326      -2.957952      -6.280210       0.060000                    
       1.528178      -4.662139      -6.788323       0.060000                    
      -0.776913      -5.100190      -6.241335       0.060000                    
      -0.703280      -3.658985      -7.292923       0.060000                    
      -0.532819       8.148709       1.225952      -0.120000                    
       0.291158       8.545567       2.452516      -0.120000                    
       0.018400       9.987949       2.883948      -0.120000                    
       0.197773      10.975437       1.729088      -0.120000                    
      -0.626199      10.578584       0.502531      -0.120000                    
      -0.353446       9.136196       0.071092      -0.120000                    
      -1.584108       8.127687       1.505283       0.060000                    
      -0.210667       7.163889       0.894477       0.060000                    
       0.032366       7.881911       3.274793       0.060000                    
       1.346941       8.449575       2.208043       0.060000                    
      -1.006285      10.055537       3.243212       0.060000                    
       0.714591      10.250978       3.677582       0.060000                    
       1.249068      10.996463       1.449764       0.060000                    
      -0.124365      11.960260       2.060564       0.060000                    
      -1.681979      10.674569       0.746992       0.060000                    
      -0.367407      11.242240      -0.319747       0.060000                    
       0.671247       9.068604      -0.288160       0.060000                    
      -1.049630       8.873162      -0.722531       0.060000                    
       3.560890       0.818827      -4.416101      -0.120000                    
       4.902936       1.183522      -5.053895      -0.120000                    
       4.801137       1.300445      -6.576059      -0.120000                    
       4.187810       0.048954      -7.207443      -0.120000                    
       2.845759      -0.315746      -6.569655      -0.120000                    
       2.947558      -0.432669      -5.047493      -0.120000                    
       2.873051       1.650421      -4.553834       0.060000                    
       3.719112       0.631552      -3.356168       0.060000                    
       5.229900       2.140511      -4.652777       0.060000                    
       5.625227       0.406556      -4.812435       0.060000                    
       4.173115       2.155293      -6.817853       0.060000                    
       5.801016       1.440094      -6.981659       0.060000                    
       4.875643      -0.782645      -7.069717       0.060000                    
       4.029582       0.236223      -8.267384       0.060000                    
       2.123473       0.461224      -6.811110       0.060000                    
       2.518794      -1.272735      -6.970774       0.060000                    
       3.575585      -1.287513      -4.805692       0.060000                    
       1.947678      -0.572319      -4.641893       0.060000                    
       0.128795      -6.951617       1.827837      -0.120000                    
      -1.274505      -6.545030       1.373586      -0.120000                    
      -1.905410      -5.515773       2.313564      -0.120000                    
      -1.887542      -5.983037       3.770386      -0.120000                    
      -0.484243      -6.389616       4.224633      -0.120000                    
       0.146672      -7.418883       3.284654      -0.120000                    
       0.788484      -6.092015       1.730342       0.060000                    
       0.475847      -7.767115       1.196890       0.060000                    
      -1.205664      -6.110817       0.378437       0.060000                    
      -1.904702      -7.431718       1.355634       0.060000                    
      -1.343746      -4.586969       2.239413       0.060000                    
      -2.938657      -5.357003       2.012062       0.060000                    
      -2.547222      -6.842639       3.867875       0.060000                    
      -2.234593      -5.167539       4.401333       0.060000                    
       0.145953      -5.502927       4.242585       0.060000                    
      -0.553076      -6.823828       5.219777       0.060000                    
      -0.414993      -8.347677       3.358800       0.060000                    
       1.179909      -7.577642       3.586157       0.060000                    
      -6.125284      -3.344783      -0.486475      -0.120000                    
      -5.621255      -4.600102       0.228380      -0.120000                    
      -4.336796      -5.141946      -0.402168      -0.120000                    
      -4.486218      -5.361508      -1.908964      -0.120000                    
      -4.990239      -4.106190      -2.623826      -0.120000                    
      -6.274698      -3.564346      -1.993277      -0.120000                    
      -5.411514      -2.540448      -0.321446       0.060000                    
      -7.096688      -3.077363      -0.076124       0.060000                    
      -5.419885      -4.350950       1.268106       0.060000                    
      -6.389691      -5.367766       0.166316       0.060000                    
      -3.536854      -4.424253      -0.233029       0.060000                    
      -4.094725      -6.093956       0.065557       0.060000                    
      -5.199981      -6.165844      -2.074000       0.060000                    
      -3.514806      -5.628929      -2.319321       0.060000                    
      -4.221804      -3.338526      -2.561761       0.060000                    
      -5.191609      -4.355342      -3.663552       0.060000                    
      -7.074638      -4.282048      -2.162412       0.060000                    
      -6.516765      -2.612332      -2.460995       0.060000                    
       0.761790      -2.295740       4.594378      -0.120000                    
       0.575992      -0.962838       5.322241      -0.120000                    
       1.849285      -0.114764       5.298910      -0.120000                    
       3.062644      -0.887825       5.819623      -0.120000                    
       3.248443      -2.220736       5.091765      -0.120000                    
       1.975145      -3.068815       5.115088      -0.120000                    
       0.905415      -2.096097       3.534557       0.060000                    
      -0.128452      -2.902228       4.746835       0.060000                    
      -0.220807      -0.407240       4.832309       0.060000                    
       0.312607      -1.166111       6.358092       0.060000                    
       2.045269       0.190023       4.273080       0.060000                    
       1.696795       0.758683       5.929453       0.060000                    
       2.919013      -1.087474       6.879437       0.060000                    
       3.952885      -0.281338       5.667166       0.060000                    
       3.511835      -2.017456       4.055903       0.060000                    
       4.045236      -2.776331       5.581685       0.060000                    
       1.779161      -3.373602       6.140918       0.060000                    
       2.127638      -3.942249       4.484548       0.060000                    
       8.726340       2.046700       3.306287      -0.120000                    
       9.520034       0.739496       3.260422      -0.120000                    
       8.639023      -0.452884       2.882173      -0.120000                    
       7.405718      -0.562449       3.781016      -0.120000                    
       6.612029       0.744768       3.826885      -0.120000                    
       7.493040       1.937148       4.205133      -0.120000                    
       8.400643       2.291293       2.297452       0.060000                    
       9.371420       2.831679       3.695272       0.060000                    
      10.309377       0.837824       2.518253       0.060000                    
       9.947553       0.557611       4.244195       0.060000                    
       8.309166      -0.328784       1.852877       0.060000                    
       9.224988      -1.364015       2.983358       0.060000                    
       7.731423      -0.807043       4.789845       0.060000                    
       6.760647      -1.347429       3.392026       0.060000                    
       6.184505       0.926649       2.843105       0.060000                    
       5.822681       0.646427       4.569051       0.060000                    
       7.822891       1.813043       5.234423       0.060000                    
       6.907076       2.848270       4.103952       0.060000                    
      -7.288668       2.291151      -3.091954      -0.120000                    
      -8.555288       2.135911      -3.936049      -0.120000                    
      -9.767350       1.751109      -3.085265      -0.120000                    
      -9.495645       0.514222      -2.226641      -0.120000                    
      -8.229030       0.669457      -1.382554      -0.120000                    
      -7.016967       1.054259      -2.233336      -0.120000                    
      -7.411441       3.149978      -2.435429       0.060000                    
      -6.442875       2.443961      -3.758980       0.060000                    
      -8.763065       3.083377      -4.428754       0.060000                    
      -8.387220       1.355225      -4.674918       0.060000                    
     -10.009599       2.583915      -2.428455       0.060000                    
     -10.603458       1.537546      -3.747845       0.060000                    
      -9.372870      -0.344604      -2.883166       0.060000                    
     -10.341434       0.361404      -1.559610       0.060000                    
      -8.397091       1.450148      -0.643677       0.060000                    
      -8.021245      -0.278012      -0.889837       0.060000                    
      -6.774713       0.221459      -2.890141       0.060000                    
      -6.180853       1.267828      -1.570749       0.060000                    
       8.598221       1.514158      -3.465158      -0.120000                    
       8.651858       2.362411      -2.192980      -0.120000                    
       9.548538       1.735413      -1.123479      -0.120000                    
       9.161296       0.284744      -0.829124      -0.120000                    
       9.107658      -0.563510      -2.101302      -0.120000                    
       8.210978       0.063489      -3.170802      -0.120000                    
       9.581245       1.523859      -3.931256       0.060000                    
       7.857612       1.942117      -4.137463       0.060000                    
       9.046807       3.344047      -2.445960       0.060000                    
       7.644300       2.452789      -1.792582       0.060000                    
      10.577355       1.755815      -1.476684       0.060000                    
       9.452753       2.313633      -0.206805       0.060000                    
       8.178270       0.275042      -0.363026       0.060000                    
       9.901904      -0.143216      -0.156819       0.060000                    
      10.115215      -0.653888      -2.501699       0.060000                    
       8.712708      -1.545148      -1.848305       0.060000                    
       7.182161       0.043086      -2.817598       0.060000                    
       8.306760      -0.514726      -4.087464       0.060000                    
       3.311150       2.940422       7.196703      -0.120000                    
       3.871233       3.407696       8.541653      -0.120000                    
       4.558316       4.770550       8.433966      -0.120000                    
       5.620037       4.791885       7.332452      -0.120000                    
       5.059955       4.324611       5.987503      -0.120000                    
       4.372872       2.961757       6.095191      -0.120000                    
       2.498394       3.604007       6.909063       0.060000                    
       2.945451       1.921816       7.307360       0.060000                    
       3.050506       3.487242       9.251315       0.060000                    
       4.599765       2.677434       8.887518       0.060000                    
       3.805660       5.522327       8.206004       0.060000                    
       5.038765       4.993670       9.384274       0.060000                    
       6.432794       4.128300       7.620092       0.060000                    
       5.985737       5.810491       7.221795       0.060000                    
       4.331423       5.054873       5.641638       0.060000                    
       5.880682       4.245065       5.277840       0.060000                    
       5.125532       2.209985       6.323158       0.060000                    
       3.892422       2.738637       5.144882       0.060000                    
      -3.982280       7.777939      -5.302357      -0.120000                    
      -3.825784       7.563412      -3.795582      -0.120000                    
      -4.041096       8.856859      -3.007118      -0.120000                    
      -3.155340       9.994565      -3.519075      -0.120000                    
      -3.311844      10.209094      -5.025844      -0.120000                    
      -3.096516       8.915642      -5.814302      -0.120000                    
      -5.020909       8.024494      -5.512441       0.060000                    
      -3.701019       6.860624      -5.815258       0.060000                    
      -4.561859       6.831366      -3.470307       0.060000                    
      -2.819429       7.199775      -3.598815       0.060000                    
      -5.082573       9.155366      -3.106529       0.060000                    
      -3.799789       8.671530      -1.962548       0.060000                    
      -2.116711       9.748013      -3.308992       0.060000                    
      -3.436594      10.911876      -3.006162       0.060000                    
      -4.318183      10.572726      -5.222606       0.060000                    
      -2.575756      10.941145      -5.351119       0.060000                    
      -2.055055       8.617140      -5.714896       0.060000                    
      -3.337834       9.100981      -6.858871       0.060000                    
      -6.649107      -0.357943      -5.905572      -0.120000                    
      -5.742887      -1.570213      -5.681851      -0.120000                    
      -4.697900      -1.716780      -6.789806      -0.120000                    
      -5.334758      -1.726259      -8.180928      -0.120000                    
      -6.240990      -0.513979      -8.404649      -0.120000                    
      -7.285967      -0.367413      -7.296700      -0.120000                    
      -6.052418       0.545942      -5.802541       0.060000                    
      -7.441524      -0.373966      -5.160336       0.060000                    
      -5.227344      -1.448306      -4.731640       0.060000                    
      -6.359220      -2.466575      -5.664504       0.060000                    
      -4.007162      -0.878415      -6.729351       0.060000                    
      -4.166325      -2.654867      -6.644402       0.060000                    
      -5.931455      -2.630143      -8.283955       0.060000                    
      -4.542342      -1.710236      -8.926165       0.060000                    
      -5.624641       0.382378      -8.421990       0.060000                    
      -6.756525      -0.635888      -9.354867       0.060000                    
      -7.976704      -1.205787      -7.357152       0.060000                    
      -7.817541       0.570666      -7.442100       0.060000                    
       4.892253      10.073454       1.427147      -0.120000                    
       4.890042      10.343116       2.933187      -0.120000                    
       4.119415      11.616909       3.286187      -0.120000                    