%nprocshared=4                                                                       
%mem=8GB                                                                             
#P pop=chelpg cam-b3lyp/gen scf=qc int=ultrafine charge td(nstates=10)               
                                                                                     
pNA CAM-B3LYP def2-TZVPD Single point - solvent def2-SV(P)                           
                                                                                     
0 1                                                                                  
 C       1.386341       0.000000       0.000000                                 
 C       0.000000       0.000000       0.000000                                 
 C      -0.712907       1.188984      -0.000000                                 
 C      -0.035635       2.384357       0.000131                                 
 C       1.365534       2.410943       0.000833                                 
 C       2.063239       1.195576       0.000133                                 
 H       1.918972      -0.938700       0.000854                                 
 H      -1.791888       1.163049       0.000837                                 
 H      -0.586620       3.315732      -0.002113                                 
 H       3.145392       1.202000      -0.002090                                 
 N      -0.713906      -1.260429       0.001744                                 
 O      -1.931758      -1.232720       0.002551                                 
 O      -0.063858      -2.290656       0.002518                                 
 N       2.037885       3.598040      -0.033161                                 
 H       1.540331       4.445798       0.174764                                 
 H       3.020819       3.607257       0.174736                                 
 C      -0.904121       5.843628      -0.757121                                 
 C      -0.388115       5.515029      -2.159517                                 
 C       0.959042       6.181699      -2.445293                                 
 C       0.918579       7.689456      -2.188251                                 
 C       0.402585       8.018053      -0.785864                                 
 C      -0.944588       7.351379      -0.500086                                 
 H      -0.241889       5.384060      -0.026422                                 
 H      -1.911837       5.446465      -0.655496                                 
 H      -0.266937       4.436991      -2.241632                                 
 H      -1.113288       5.869848      -2.888829                                 
 H       1.711051       5.738359      -1.795994                                 
 H       1.215530       6.013767      -3.489196                                 
 H       0.256355       8.149017      -2.918952                                 
 H       1.926307       8.086617      -2.289885                                 
 H       1.127741       7.663230      -0.056550                                 
 H       0.281403       9.096087      -0.703742                                 
 H      -1.696590       7.794713      -1.149385                                 
 H      -1.201076       7.519310       0.543817                                 
 C       2.774933      -1.294469       3.148028                                 
 C       3.801235      -2.368434       2.781651                                 
 C       5.064697      -2.269953       3.638972                                 
 C       5.669793      -0.864980       3.608987                                 
 C       4.643496       0.208991       3.975356                                 
 C       3.380033       0.110510       3.118036                                 
 H       2.407163      -1.493231       4.152476                                 
 H       1.957192      -1.336151       2.431642                                 
 H       3.351226      -3.346667       2.936732                                 
 H       4.078979      -2.242063       1.737359                                 
 H       4.807292      -2.515782       4.667053                                 
 H       5.800604      -2.973641       3.255666                                 
 H       6.037555      -0.666211       2.604540                                 
 H       6.487538      -0.823293       4.325366                                 
 H       4.365747       0.082615       5.019657                                 
 H       5.093504       1.187223       3.820276                                 
 H       3.637439       0.356339       2.089955                                 
 H       2.644119       0.814204       3.501342                                 
 C       5.731029       2.996921      -0.319788                                 
 C       6.124328       1.997683       0.770044                                 
 C       7.442951       2.377345       1.446866                                 
 C       8.567796       2.590507       0.431801                                 
 C       8.174505       3.589738      -0.658031                                 
 C       6.855870       3.210078      -1.334845                                 
 H       5.501125       3.950998       0.149819                                 
 H       4.857842       2.614114      -0.843784                                 
 H       5.339751       1.978270       1.523522                                 
 H       6.236542       1.015039       0.316738                                 
 H       7.295513       3.301544       2.001634                                 
 H       7.731260       1.574080       2.121702                                 
 H       8.797701       1.636430      -0.037805                                 
 H       9.440990       2.973307       0.955798                                 
 H       8.062279       4.572384      -0.204716                                 
 H       8.959070       3.609152      -1.411501                                 
 H       7.003313       2.285883      -1.889620                                 
 H       6.567573       4.013341      -2.009688                                 
 C      -2.253358      -1.205878       3.921046                                 
 C      -0.782697      -0.818941       4.089490                                 
 C      -0.623074       0.567003       4.717778                                 
 C      -1.413386       1.634958       3.958894                                 
 C      -2.884039       1.248015       3.790450                                 
 C      -3.043674      -0.137928       3.162170                                 
 H      -2.695355      -1.330152       4.907406                                 
 H      -2.305828      -2.138786       3.363791                                 
 H      -0.302349      -1.550871       4.735371                                 
 H      -0.310333      -0.812858       3.109418                                 
 H      -0.986447       0.528135       5.742511                                 
 H       0.430767       0.836947       4.701102                                 
 H      -0.971385       1.759220       2.972542                                 
 H      -1.360915       2.567865       4.516150                                 
 H      -3.356403       1.241931       4.770522                                 
 H      -3.364386       1.979946       3.144584                                 
 H      -2.680297      -0.099055       2.137431                                 
 H      -4.097503      -0.407873       3.178838                                 
 C       4.826323      -5.189707       0.041096                                 
 C       3.836076      -4.428496      -0.842584                                 
 C       2.453527      -4.324014      -0.195546                                 
 C       1.912367      -5.692050       0.224706                                 
 C       2.902618      -6.453256       1.108377                                 
 C       4.285162      -6.557743       0.461347                                 
 H       5.017053      -4.601374       0.936159                                 
 H       5.748363      -5.337134      -0.517159                                 
 H       4.219152      -3.423806      -1.008439                                 
 H       3.738003      -4.955962      -1.789067                                 
 H       2.529911      -3.693941       0.688054                                 
 H       1.765644      -3.883948      -0.914470                                 
 H       1.721637      -6.280383      -0.670358                                 
 H       0.990331      -5.544618       0.782952                                 
 H       3.000690      -5.925790       2.054861                                 
 H       2.519541      -7.457946       1.274233                                 
 H       4.208783      -7.187810      -0.422261                                 
 H       4.973050      -6.997805       1.180263                                 
 C      -6.493206      -0.038159      -2.570465                                 
 C      -7.259115      -1.261059      -2.061733                                 
 C      -7.370695      -1.273406      -0.535817                                 
 C      -6.005484      -1.130279       0.140030                                 
 C      -5.239577       0.092634      -0.368695                                 
 C      -5.127988       0.104974      -1.894612                                 
 H      -7.080815       0.852753      -2.359211                                 
 H      -6.341003      -0.144397      -3.642398                                 
 H      -8.261808      -1.243546      -2.483509                                 
 H      -6.731870      -2.158274      -2.379018                                 
 H      -8.000640      -0.442060      -0.226523                                 
 H      -7.814018      -2.217862      -0.227304                                 
 H      -5.417873      -2.021191      -0.071224                                 
 H      -6.157686      -1.024041       1.211964                                 
 H      -5.766814       0.989842      -0.051411                                 
 H      -4.236880       0.075109       0.053074                                 
 H      -4.498044      -0.726372      -2.203906                                 
 H      -4.684679       1.049431      -2.203130                                 
                                                                                
       5.152356       4.335793       3.576729      -0.120000                    
       5.285467       5.451099       4.615594      -0.120000                    
       4.641512       5.070815       5.950387      -0.120000                    
       3.190137       4.618097       5.778344      -0.120000                    
       3.057029       3.502796       4.739471      -0.120000                    
       3.700992       3.883074       3.404679      -0.120000                    
       5.745850       3.484241       3.902792       0.060000                    
       5.516778       4.705805       2.620720       0.060000                    
       6.342608       5.646266       4.782722       0.060000                    
       4.792937       6.342776       4.233515       0.060000                    
       5.210374       4.254726       6.390871       0.060000                    
       4.659355       5.939653       6.605056       0.060000                    
       2.596652       5.469660       5.452280       0.060000                    
       2.825720       4.248091       6.734346       0.060000                    
       3.549566       2.611125       5.121557       0.060000                    
       1.999884       3.307624       4.572352       0.060000                    
       3.132123       4.699169       2.964195       0.060000                    
       3.683138       3.014237       2.750017       0.060000                    
      -2.036472      -7.337830      -2.300849      -0.120000                    
      -2.166190      -7.673630      -0.813853      -0.120000                    
      -2.882706      -6.567310      -0.036878      -0.120000                    
      -2.236706      -5.198594      -0.261137      -0.120000                    
      -2.106984      -4.862789      -1.748140      -0.120000                    
      -1.390468      -5.969109      -2.525116      -0.120000                    
      -3.030273      -7.329945      -2.743536       0.060000                    
      -1.417819      -8.096253      -2.775918       0.060000                    
      -2.737006      -8.594398      -0.713775       0.060000                    
      -1.168981      -7.800740      -0.397815       0.060000                    
      -3.917288      -6.522329      -0.370385       0.060000                    
      -2.838269      -6.803030       1.024333       0.060000                    
      -1.242901      -5.206474       0.181541       0.060000                    
      -2.855356      -4.440165       0.213924       0.060000                    
      -3.104201      -4.735672      -2.164178       0.060000                    
      -1.536168      -3.942021      -1.848219       0.060000                    
      -0.355890      -6.014094      -2.191601       0.060000                    
      -1.434916      -5.733387      -3.586318       0.060000                    
       2.053631      -0.841675      -4.106377      -0.120000                    
       2.837313      -2.109263      -3.760021      -0.120000                    
       2.207594      -3.359208      -4.378190      -0.120000                    
       0.724356      -3.488139      -4.025564      -0.120000                    
      -0.059326      -2.220551      -4.371920      -0.120000                    
       0.570393      -0.970606      -3.753752      -0.120000                    
       2.142264      -0.659254      -5.175281       0.060000                    
       2.473253      -0.009299      -3.545451       0.060000                    
       3.851177      -2.006166      -4.140825       0.060000                    
       2.850433      -2.225285      -2.678342       0.060000                    
       2.303715      -3.298136      -5.460145       0.060000                    
       2.731847      -4.235065      -4.001644       0.060000                    
       0.635718      -3.670566      -2.956667       0.060000                    
       0.304734      -4.320515      -4.586490       0.060000                    
      -0.072446      -2.104529      -5.453600       0.060000                    
      -1.073196      -2.323653      -3.991123       0.060000                    
       0.474271      -1.031678      -2.671797       0.060000                    
       0.046151      -0.094750      -4.130306       0.060000                    
      -2.170150       3.253521      -6.658747      -0.120000                    
      -0.967696       3.818742      -5.900115      -0.120000                    
      -0.484180       2.868485      -4.802713      -0.120000                    
      -1.616637       2.459312      -3.858743      -0.120000                    
      -2.819095       1.894087      -4.617368      -0.120000                    
      -3.302604       2.844338      -5.714770      -0.120000                    
      -1.848465       2.376510      -7.216439       0.060000                    
      -2.542746       4.017037      -7.338263       0.060000                    
      -0.154829       3.977473      -6.605545       0.060000                    
      -1.258126       4.761222      -5.440732       0.060000                    
      -0.081209       1.972957      -5.270974       0.060000                    
       0.287307       3.370870      -4.222927       0.060000                    
      -1.938326       3.336318      -3.301044       0.060000                    
      -1.244038       1.695786      -3.179220       0.060000                    
      -2.528665       0.951606      -5.076750       0.060000                    
      -3.631961       1.735355      -3.911938       0.060000                    
      -3.705583       3.739872      -5.246509       0.060000                    
      -4.074098       2.341960      -6.294556       0.060000                    
       5.458364       7.345387       0.422373      -0.120000                    
       5.472199       7.842256       1.869401      -0.120000                    
       6.184566       9.189441       2.005989      -0.120000                    
       7.587686       9.160389       1.396564      -0.120000                    
       7.573846       8.663545      -0.050452      -0.120000                    
       6.861504       7.316358      -0.187042      -0.120000                    
       4.836305       8.014046      -0.168915       0.060000                    
       5.050811       6.336851       0.404928       0.060000                    
       4.444557       7.956539       2.207621       0.060000                    
       5.992371       7.110106       2.483462       0.060000                    
       5.597482       9.946951       1.491070       0.060000                    
       6.269664       9.432073       3.063148       0.060000                    
       8.209769       8.491759       1.987855       0.060000                    
       7.995263      10.168953       1.414011       0.060000                    
       7.053703       9.395698      -0.664523       0.060000                    
       8.601513       8.549260      -0.388674       0.060000                    
       7.448591       6.558852       0.327870       0.060000                    
       6.776406       7.073726      -1.244202       0.060000                    
      -0.431636       7.220423       4.502672      -0.120000                    
      -1.589714       8.204798       4.677905      -0.120000                    
      -2.903713       7.491711       5.003336      -0.120000                    
      -3.230235       6.398189       3.984251      -0.120000                    
      -2.072157       5.413814       3.809019      -0.120000                    
      -0.758158       6.126901       3.483588      -0.120000                    
      -0.226043       6.751040       5.462399       0.060000                    
       0.441635       7.769033       4.156174       0.060000                    
      -1.349947       8.881848       5.495007       0.060000                    
      -1.716288       8.761187       3.751574       0.060000                    
      -2.817283       7.035460       5.987212       0.060000                    
      -3.707876       8.224540       4.996590       0.060000                    
      -3.435828       6.867571       3.024525       0.060000                    
      -4.103507       5.849578       4.330750       0.060000                    
      -1.945583       4.857425       4.735350       0.060000                    
      -2.311929       4.736758       2.991925       0.060000                    
      -0.844592       6.583147       2.499720       0.060000                    
       0.046001       5.394066       3.490342       0.060000                    
       0.954202      -4.640906       4.328755      -0.120000                    
       1.435415      -4.214780       5.717186      -0.120000                    
       1.379625      -5.367424       6.721821      -0.120000                    
      -0.003615      -6.019581       6.769882      -0.120000                    
      -0.484829      -6.445706       5.381450      -0.120000                    
      -0.429048      -5.293072       4.376817      -0.120000                    
       1.662764      -5.358279       3.920215       0.060000                    
       0.901032      -3.759342       3.693475       0.060000                    
       2.464869      -3.871889       5.638309       0.060000                    
       0.796141      -3.410450       6.075050       0.060000                    
       2.108740      -6.119768       6.428595       0.060000                    
       1.615231      -4.978712       7.710313       0.060000                    
      -0.712183      -5.302213       7.178416       0.060000                    
       0.049554      -6.901144       7.405162       0.060000                    
       0.154440      -7.250042       5.023581       0.060000                    
      -1.514287      -6.788602       5.460336       0.060000                    
      -1.158158      -4.540722       4.670050       0.060000                    
      -0.664645      -5.681774       3.388323       0.060000                    
      -6.251187       5.400207      -0.413476      -0.120000                    
      -7.288769       4.275815      -0.402805      -0.120000                    
      -7.842887       4.020633       1.000358      -0.120000                    
      -6.729115       3.782411       2.022028      -0.120000                    
      -5.691532       4.906803       2.011357      -0.120000                    
      -5.137420       5.161978       0.608187      -0.120000                    
      -6.750310       6.336220      -0.171739       0.060000                    
      -5.807401       5.454387      -1.405266       0.060000                    
      -8.112224       4.556389      -1.056057       0.060000                    
      -6.816597       3.363580      -0.761320       0.060000                    
      -8.418750       4.890140       1.310206       0.060000                    
      -8.479187       3.138731       0.967748       0.060000                    
      -6.229996       2.846391       1.780285       0.060000                    
      -7.172902       3.728230       3.013818       0.060000                    
      -6.163705       5.819038       2.369872       0.060000                    
      -4.868078       4.626227       2.664609       0.060000                    
      -4.561561       4.292467       0.298347       0.060000                    
      -4.501123       6.043876       0.640806       0.060000                    
      -6.578494      -6.234291       4.276659      -0.120000                    
      -7.203462      -4.923402       3.795127      -0.120000                    
      -6.376067      -4.266601       2.688310      -0.120000                    
      -4.912263      -4.087797       3.096143      -0.120000                    
      -4.287295      -5.398685       3.577676      -0.120000                    
      -5.114690      -6.055488       4.684494      -0.120000                    
      -6.627882      -6.960636       3.468153       0.060000                    
      -7.138538      -6.590466       5.138659       0.060000                    
      -8.197845      -5.134117       3.407337       0.060000                    
      -7.264425      -4.237312       4.637285       0.060000                    
      -6.415762      -4.898077       1.803303       0.060000                    
      -6.798925      -3.287614       2.472583       0.060000                    
      -4.862883      -3.361446       3.904650       0.060000                    
      -4.352220      -3.731621       2.234143       0.060000                    
      -4.226339      -6.084769       2.735518       0.060000                    
      -3.292918      -5.187976       3.965459       0.060000                    
      -5.074995      -5.424011       5.569500       0.060000                    
      -4.691840      -7.034467       4.900220       0.060000                    
       4.004559       6.621179      -6.000534      -0.120000                    
       4.108184       7.432170      -4.707314      -0.120000                    
       5.438999       7.198472      -3.989417      -0.120000                    
       5.711252       5.711011      -3.756476      -0.120000                    
       5.607627       4.900020      -5.049695      -0.120000                    
       4.276815       5.133707      -5.767586      -0.120000                    
       4.736941       7.001831      -6.709320       0.060000                    
       2.999018       6.732039      -6.400815       0.060000                    
       4.026114       8.489008      -4.952119       0.060000                    
       3.298603       7.134405      -4.044345       0.060000                    
       6.240486       7.606977      -4.601240       0.060000                    
       5.406734       7.701182      -3.025062       0.060000                    
       4.978869       5.330359      -3.047690       0.060000                    
       6.716800       5.600144      -3.356195       0.060000                    
       6.417216       5.197779      -5.712665       0.060000                    
       5.689692       3.843176      -4.804897       0.060000                    
       3.475325       4.725213      -5.155771       0.060000                    
       4.309083       4.631001      -6.731948       0.060000                    
       9.571765       0.934113      -4.752302      -0.120000                    
       9.021895       0.784807      -3.332378      -0.120000                    
       7.724830      -0.026191      -3.302436      -0.120000                    
       6.676863       0.532683      -4.267006      -0.120000                    
       7.226738       0.681995      -5.686923      -0.120000                    
       8.523804       1.492993      -5.716866      -0.120000                    
       9.885119      -0.044944      -5.108556       0.060000                    
      10.419454       1.615518      -4.727010       0.060000                    
       9.765137       0.274419      -2.723585       0.060000                    
       8.821502       1.776006      -2.931083       0.060000                    
       7.949183      -1.051515      -3.588761       0.060000                    
       7.319377       0.003642      -2.293280       0.060000                    
       6.363514       1.511747      -3.910746       0.060000                    
       5.829180      -0.148716      -4.292293       0.060000                    
       7.427132      -0.309204      -6.088219       0.060000                    
       6.483497       1.192383      -6.295716       0.060000                    
       8.299451       2.518317      -5.430541       0.060000                    
       8.929252       1.463154      -6.726028       0.060000                    
       8.345233      -4.722349       0.312390      -0.120000                    
       9.628577      -4.478835       1.109025      -0.120000                    
       9.592863      -3.146140       1.859795      -0.120000                    
       9.262718      -1.974567       0.932799      -0.120000                    
       7.979366      -2.218074       0.136165      -0.120000                    
       8.015076      -3.550774      -0.614598      -0.120000                    
       7.522113      -4.855311       1.011286       0.060000                    
       8.475624      -5.617650      -0.291764       0.060000                    
       9.746365      -5.282519       1.832726       0.060000                    
      10.469318      -4.466495       0.418621       0.060000                    
       8.829901      -3.203168       2.633284       0.060000                    
      10.569896      -2.972036       2.305665       0.060000                    
      10.085832      -1.841597       0.233904       0.060000                    
       9.132318      -1.079276       1.536955       0.060000                    
       7.138628      -2.230425       0.826576       0.060000                    
       7.861581      -1.414402      -0.587543       0.060000                    
       8.778034      -3.493752      -1.388092       0.060000                    
       7.038044      -3.724877      -1.060468       0.060000                    
      -3.876141      -3.409674      -6.894272      -0.120000                    
      -4.119845      -2.229879      -5.951108      -0.120000                    
      -4.771297      -1.046656      -6.669839      -0.120000                    
      -3.987748      -0.631283      -7.916633      -0.120000                    
      -3.744036      -1.811085      -8.859797      -0.120000                    
      -3.092583      -2.994290      -8.141068      -0.120000                    
      -4.838470      -3.810267      -7.205879       0.060000                    
      -3.306060      -4.168291      -6.362120       0.060000                    
      -4.779518      -2.555870      -5.149723       0.060000                    
      -3.163856      -1.906312      -5.544810       0.060000                    
      -5.776790      -1.333343      -6.970572       0.060000                    
      -4.808669      -0.201864      -5.985268       0.060000                    
      -3.025407      -0.230690      -7.605020       0.060000                    
      -4.557817       0.127332      -8.448792       0.060000                    
      -4.700020      -2.134645      -9.266088       0.060000                    
      -3.084359      -1.485088      -9.661190       0.060000                    
      -2.087095      -2.707609      -7.840340       0.060000                    
      -3.055208      -3.839094      -8.825645       0.060000                    
      -4.884951       9.575294      -5.920981      -0.120000                    
      -5.638229       9.107905      -4.673991      -0.120000                    
      -4.747126       8.285799      -3.740678      -0.120000                    