%nprocshared=4                                                                       
%mem=8GB                                                                             
#P pop=chelpg cam-b3lyp/gen scf=qc int=ultrafine charge td(nstates=10)               
                                                                                     
pNA CAM-B3LYP def2-TZVPD Single point - solvent def2-SV(P)                           
                                                                                     
0 1                                                                                  
 C       1.386341       0.000000       0.000000                                 
 C       0.000000       0.000000       0.000000                                 
 C      -0.712907       1.188984      -0.000000                                 
 C      -0.035635       2.384357       0.000131                                 
 C       1.365534       2.410943       0.000833                                 
 C       2.063239       1.195576       0.000133                                 
 H       1.918972      -0.938700       0.000854                                 
 H      -1.791888       1.163049       0.000837                                 
 H      -0.586620       3.315732      -0.002113                                 
 H       3.145392       1.202000      -0.002090                                 
 N      -0.713906      -1.260429       0.001744                                 
 O      -1.931758      -1.232720       0.002551                                 
 O      -0.063858      -2.290656       0.002518                                 
 N       2.037885       3.598040      -0.033161                                 
 H       1.540331       4.445798       0.174764                                 
 H       3.020819       3.607257       0.174736                                 
 C       2.292351       8.864264       1.875450                                 
 C       1.741308       9.279530       0.509859                                 
 C       0.420937       8.577146       0.186971                                 
 C       0.532127       7.057145       0.321947                                 
 C       1.083176       6.641885       1.687545                                 
 C       2.403551       7.344263       2.010417                                 
 H       1.621409       9.233727       2.648110                                 
 H       3.282864       9.297482       1.997075                                 
 H       1.571172      10.354052       0.515723                                 
 H       2.470501       9.017114      -0.253740                                 
 H      -0.340191       8.932837       0.878212                                 
 H       0.141638       8.815713      -0.837138                                 
 H       1.203077       6.687694      -0.450713                                 
 H      -0.458383       6.623934       0.200315                                 
 H       0.353990       6.904295       2.451142                                 
 H       1.253309       5.567363       1.681666                                 
 H       3.164680       6.988573       1.319176                                 
 H       2.682851       7.105696       3.034526                                 
 C      -3.729275       0.299556      -2.800399                                 
 C      -3.254336       1.645948      -3.350422                                 
 C      -3.313107       2.750011      -2.292779                                 
 C      -4.695859       2.850909      -1.645593                                 
 C      -5.170797       1.504518      -1.095570                                 
 C      -5.112026       0.400454      -2.153213                                 
 H      -3.018214      -0.039908      -2.050146                                 
 H      -3.780699      -0.412722      -3.621149                                 
 H      -2.224890       1.540715      -3.686319                                 
 H      -3.895937       1.927380      -4.182793                                 
 H      -2.581969       2.528673      -1.518125                                 
 H      -3.082052       3.700482      -2.769197                                 
 H      -5.406917       3.190379      -2.395854                                 
 H      -4.644434       3.563187      -0.824844                                 
 H      -4.529186       1.223085      -0.263209                                 
 H      -6.200241       1.609756      -0.759681                                 
 H      -5.843153       0.621792      -2.927876                                 
 H      -5.343072      -0.550017      -1.676805                                 
 C       2.371135      -2.559624      -4.219715                                 
 C       3.680729      -1.869831      -3.832439                                 
 C       4.495669      -2.702629      -2.840809                                 
 C       3.672659      -3.100221      -1.613793                                 
 C       2.363065      -3.790014      -2.001070                                 
 C       1.548125      -2.957216      -2.992699                                 
 H       2.605801      -3.457905      -4.786895                                 
 H       1.782824      -1.873757      -4.825584                                 
 H       4.274529      -1.720952      -4.731806                                 
 H       3.446449      -0.912281      -3.372126                                 
 H       4.832755      -3.607754      -3.341553                                 
 H       5.349009      -2.113694      -2.511101                                 
 H       3.438001      -2.201946      -1.046615                                 
 H       4.260981      -3.786089      -1.007934                                 
 H       2.597345      -4.747564      -2.461383                                 
 H       1.769273      -3.938899      -1.101704                                 
 H       1.211042      -2.052086      -2.491963                                 
 H       0.694802      -3.546147      -3.322411                                 
 C       6.940133       2.831934       2.285998                                 
 C       5.797152       1.921887       1.831792                                 
 C       4.467575       2.301230       2.487043                                 
 C       4.577603       2.365562       4.011757                                 
 C       5.720585       3.275627       4.465963                                 
 C       7.050165       2.896272       3.810705                                 
 H       6.756711       3.835517       1.908033                                 
 H       7.874153       2.442987       1.886134                                 
 H       5.690510       2.009842       0.752702                                 
 H       6.039315       0.896935       2.104771                                 
 H       4.164985       3.279180       2.118729                                 
 H       3.723900       1.552085       2.223480                                 
 H       4.761020       1.361990       4.389716                                 
 H       3.643578       2.754521       4.411615                                 
 H       5.478421       4.300562       4.192986                                 
 H       5.827232       3.187659       5.545060                                 
 H       7.352759       1.918328       4.179025                                 
 H       7.793839       3.645417       4.074268                                 
 C      -4.110094      -6.541004      -0.829839                                 
 C      -3.341055      -6.398770      -2.144854                                 
 C      -2.167803      -5.424662      -2.020161                                 
 C      -2.605253      -4.068666      -1.462555                                 
 C      -3.374284      -4.210906      -0.147542                                 
 C      -4.547544      -5.185009      -0.272233                                 
 H      -3.464488      -7.025074      -0.100121                                 
 H      -4.996627      -7.145560      -1.009148                                 
 H      -2.953716      -7.375059      -2.428482                                 
 H      -4.022115      -6.026916      -2.907481                                 
 H      -1.428596      -5.854979      -1.347829                                 
 H      -1.736426      -5.271847      -3.007215                                 
 H      -3.250851      -3.584602      -2.192275                                 
 H      -1.718717      -3.464123      -1.283254                                 
 H      -2.693229      -4.582750       0.615078                                 
 H      -3.761623      -3.234618       0.136085                                 
 H      -5.286751      -4.754692      -0.944566                                 
 H      -4.978918      -5.337818       0.714813                                 
 C       3.443064      -4.039809       1.792231                                 
 C       3.798400      -2.553786       1.872142                                 
 C       4.754926      -2.254628       3.028252                                 
 C       4.228493      -2.790515       4.361174                                 
 C       3.873150      -4.276532       4.281263                                 
 C       2.916631      -4.575696       3.125151                                 
 H       4.337594      -4.597193       1.522368                                 
 H       2.672882      -4.172931       1.035451                                 
 H       4.276817      -2.260076       0.940226                                 
 H       2.883169      -1.984992       2.022096                                 
 H       5.712663      -2.725938       2.817942                                 
 H       4.874884      -1.176370       3.110064                                 
 H       3.333956      -2.233125       4.631038                                 
 H       4.998667      -2.657386       5.117954                                 
 H       4.788380      -4.845326       4.131310                                 
 H       3.394729      -4.570248       5.213188                                 
 H       1.958887      -4.104380       3.335464                                 
 H       2.796666      -5.653948       3.043342                                 
                                                                                
       5.014241       6.579690      -4.498581      -0.120000                    
       4.962736       5.122691      -4.962689      -0.120000                    
       3.713770       4.402063      -4.450990      -0.120000                    
       3.561651       4.525936      -2.933606      -0.120000                    
       3.613154       5.982947      -2.469490      -0.120000                    
       4.862113       6.703569      -2.981196      -0.120000                    
       4.202467       7.125287      -4.975050       0.060000                    
       5.973929       7.002903      -4.787457       0.060000                    
       4.953573       5.104366      -6.050427       0.060000                    
       5.841994       4.605850      -4.583960       0.060000                    
       2.839359       4.842663      -4.925198       0.060000                    
       3.791125       3.347627      -4.707713       0.060000                    
       4.373417       3.980345      -2.457136       0.060000                    
       2.601961       4.102736      -2.644723       0.060000                    
       2.733904       6.499782      -2.848222       0.060000                    
       3.622319       6.001260      -1.381761       0.060000                    
       5.736538       6.262969      -2.506984       0.060000                    
       4.784759       7.758005      -2.724473       0.060000                    
      -0.824922      -1.514457       4.059433      -0.120000                    
      -1.417129      -0.134615       3.765868      -0.120000                    
      -0.331339       0.926924       3.578255      -0.120000                    
       0.646166       0.961321       4.754814      -0.120000                    
       1.238378      -0.418514       5.048384      -0.120000                    
       0.152594      -1.480060       5.235982      -0.120000                    
      -0.292941      -1.859749       3.175442       0.060000                    
      -1.636786      -2.196866       4.301800       0.060000                    
      -2.005056      -0.195729       2.852535       0.060000                    
      -2.048491       0.157897       4.602217       0.060000                    
       0.224372       0.699327       2.671065       0.060000                    
      -0.808423       1.901100       3.494105       0.060000                    
       0.114185       1.306613       5.638804       0.060000                    
       1.458035       1.643736       4.512453       0.060000                    
       1.869744      -0.711021       4.212028       0.060000                    
       1.826300      -0.357407       5.961711       0.060000                    
      -0.403118      -1.252463       6.143172       0.060000                    
       0.629675      -2.454242       5.320139       0.060000                    
      -4.072081       3.645949       2.356084      -0.120000                    
      -3.383637       4.885516       1.781265      -0.120000                    
      -3.632819       6.128533       2.637888      -0.120000                    
      -5.124109       6.364411       2.885851      -0.120000                    
      -5.812554       5.124845       3.460670      -0.120000                    
      -5.563376       3.881821       2.604041      -0.120000                    
      -3.598247       3.392282       3.302023       0.060000                    
      -3.962624       2.827516       1.647758       0.060000                    
      -2.312316       4.700627       1.740191       0.060000                    
      -3.773644       5.067971       0.782124       0.060000                    
      -3.137763       5.994522       3.597372       0.060000                    
      -3.225149       6.994612       2.120700       0.060000                    
      -5.597943       6.618078       1.939912       0.060000                    
      -5.233577       7.182844       3.594187       0.060000                    
      -5.422545       4.942389       4.459812       0.060000                    
      -6.883882       5.309722       3.501745       0.060000                    
      -6.058426       4.015838       1.644563       0.060000                    
      -5.971041       3.015748       3.121235       0.060000                    
      -4.915524      -0.950217       4.265724      -0.120000                    
      -5.156428       0.097567       3.177115      -0.120000                    
      -6.587898       0.046450       2.639241      -0.120000                    
      -6.977069      -1.359447       2.177725      -0.120000                    
      -6.736163      -2.407225       3.266325      -0.120000                    
      -5.304693      -2.356108       3.804199      -0.120000                    
      -5.515063      -0.691604       5.135992       0.060000                    
      -3.858164      -0.948657       4.521960       0.060000                    
      -4.978573       1.084439       3.598969       0.060000                    
      -4.469203      -0.090894       2.355015       0.060000                    
      -7.268018       0.353147       3.431089       0.060000                    
      -6.665253       0.724374       1.791814       0.060000                    
      -6.377532      -1.618060       1.307456       0.060000                    
      -8.034431      -1.361008       1.921488       0.060000                    
      -7.423391      -2.218769       4.088433       0.060000                    
      -6.914021      -3.394102       2.844479       0.060000                    
      -4.624573      -2.662805       3.012351       0.060000                    
      -5.227346      -3.034026       4.651627       0.060000                    
       9.089434      -1.907156      -1.524805      -0.120000                    
       8.528968      -1.599249      -0.134858      -0.120000                    
       7.305184      -0.683263      -0.200398      -0.120000                    
       7.584679       0.590471      -1.000689      -0.120000                    
       8.145147       0.282571      -2.390643      -0.120000                    
       9.368929      -0.633422      -2.325096      -0.120000                    
       8.361947      -2.506521      -2.068125       0.060000                    
      10.021121      -2.457111      -1.410046       0.060000                    
       8.237954      -2.534959       0.337831       0.060000                    
       9.301957      -1.105391       0.450166       0.060000                    
       6.491693      -1.223647      -0.679828       0.060000                    
       7.026177      -0.402812       0.813135       0.060000                    
       8.312172       1.189831      -0.457370       0.060000                    
       6.652991       1.140427      -1.115448       0.060000                    
       7.372155      -0.211294      -2.975660       0.060000                    
       8.436158       1.218274      -2.863325       0.060000                    
      10.182420      -0.093038      -1.845666       0.060000                    
       9.647938      -0.913866      -3.338637       0.060000                    
      -0.817471       6.047207      -6.277017      -0.120000                    
       0.325075       5.397104      -7.059874      -0.120000                    
       0.263322       3.869421      -7.001375      -0.120000                    
       0.187784       3.353345      -5.562977      -0.120000                    
      -0.954762       4.003448      -4.780120      -0.120000                    
      -0.893009       5.531130      -4.838619      -0.120000                    
      -1.755997       5.819240      -6.777895       0.060000                    
      -0.654364       7.122540      -6.252435       0.060000                    
       0.255086       5.708295      -8.099958       0.060000                    
       1.270197       5.723497      -6.631082       0.060000                    
      -0.623073       3.536513      -7.537194       0.060000                    
       1.159849       3.467150      -7.468422       0.060000                    
       1.126311       3.581311      -5.062099       0.060000                    
       0.024671       2.278006      -5.587564       0.060000                    
      -1.899884       3.677054      -5.208911       0.060000                    
      -0.884773       3.692256      -3.740036       0.060000                    
      -0.006614       5.864038      -4.302800       0.060000                    
      -1.789541       5.933395      -4.371577       0.060000                    
      -0.340025      -5.797769       4.102919      -0.120000                    
      -0.501888      -7.106761       4.878336      -0.120000                    
      -1.256808      -8.162915       4.068618      -0.120000                    
      -2.595359      -7.636655       3.546813      -0.120000                    
      -2.433494      -6.327656       2.771389      -0.120000                    
      -1.678576      -5.271508       3.581114      -0.120000                    
       0.318204      -5.975060       3.254998       0.060000                    
       0.091998      -5.051722       4.766470       0.060000                    
       0.486399      -7.493338       5.118141       0.060000                    
      -1.059271      -6.903955       5.790401       0.060000                    
      -0.642740      -8.454221       3.219098       0.060000                    
      -1.446731      -9.021698       4.709011       0.060000                    
      -3.253588      -7.459363       4.394734       0.060000                    
      -3.027380      -8.382696       2.883255       0.060000                    
      -1.876107      -6.530463       1.859338       0.060000                    
      -3.421783      -5.941086       2.531591       0.060000                    
      -2.292636      -4.980208       4.430633       0.060000                    
      -1.488653      -4.412725       2.940721       0.060000                    
       0.739859      -8.158110      -2.079390      -0.120000                    
       0.050596      -8.130917      -0.713724      -0.120000                    
       0.796654      -7.246436       0.287309      -0.120000                    
       2.274362      -7.627236       0.398647      -0.120000                    
       2.963634      -7.654436      -0.967021      -0.120000                    
       2.217565      -8.538917      -1.968044      -0.120000                    
       0.668580      -7.167976      -2.524600       0.060000                    
       0.238290      -8.891262      -2.707464       0.060000                    
      -0.956558      -7.739498      -0.840323       0.060000                    
       0.014738      -9.145322      -0.322090       0.060000                    
       0.728083      -6.212399      -0.043829       0.060000                    
       0.333508      -7.361033       1.265100       0.060000                    
       2.345641      -8.617371       0.843857       0.060000                    
       2.775939      -6.894091       1.026720       0.060000                    
       2.999491      -6.640030      -1.358654       0.060000                    
       3.970787      -8.045854      -0.840421       0.060000                    
       2.286138      -9.572947      -1.636914       0.060000                    
       2.680713      -8.424313      -2.945843       0.060000                    
      -4.865093       9.738010      -2.312907      -0.120000                    
      -4.503774       8.902372      -3.542538      -0.120000                    
      -4.074239       7.483220      -3.164987      -0.120000                    
      -2.954964       7.481442      -2.121803      -0.120000                    
      -3.316290       8.317075      -0.892178      -0.120000                    
      -3.745828       9.736222      -1.269721      -0.120000                    
      -5.762527       9.321100      -1.860653       0.060000                    
      -5.043585      10.763403      -2.629566       0.060000                    
      -5.376100       8.840963      -4.189769       0.060000                    
      -3.680980       9.387707      -4.063238       0.060000                    
      -4.933525       6.957662      -2.753861       0.060000                    
      -3.716124       6.978712      -4.059952       0.060000                    
      -2.057544       7.898353      -2.574061       0.060000                    
      -2.776478       6.456045      -1.805150       0.060000                    
      -4.139091       7.831747      -0.371476       0.060000                    
      -2.443958       8.378489      -0.244942       0.060000                    
      -2.886544      10.261792      -1.680840       0.060000                    
      -4.103951      10.240737      -0.374754       0.060000                    
      -2.721735      -3.072834      -6.090517      -0.120000                    
      -3.880022      -2.180990      -6.542082      -0.120000                    
      -3.389224      -0.935522      -7.282979      -0.120000                    
      -2.349979      -0.158497      -6.472306      -0.120000                    
      -1.191687      -1.050346      -6.020757      -0.120000                    
      -1.682480      -2.295809      -5.279853      -0.120000                    
      -2.236731      -3.485958      -6.972439       0.060000                    
      -3.120168      -3.872382      -5.469583       0.060000                    
      -4.519636      -2.753570      -7.210366       0.060000                    
      -4.438726      -1.865290      -5.663524       0.060000                    
      -2.936452      -1.245646      -8.222353       0.060000                    
      -4.240675      -0.284900      -7.471162       0.060000                    
      -2.834984       0.254628      -5.590384       0.060000                    
      -1.951552       0.641046      -7.093246       0.060000                    
      -0.632988      -1.366040      -6.899299       0.060000                    
      -0.552070      -0.477765      -5.352458       0.060000                    
      -2.135268      -1.985690      -4.340476       0.060000                    
      -0.831032      -2.946436      -5.091662       0.060000                    
       8.229476       9.247741       3.528550      -0.120000                    
       7.108253       9.454736       2.508314      -0.120000                    
       6.052292       8.350172       2.585219      -0.120000                    
       6.672752       6.955561       2.479834      -0.120000                    
       7.793974       6.748565       3.500070      -0.120000                    
       8.849933       7.853123       3.423173      -0.120000                    
       7.817181       9.370211       4.527914       0.060000                    
       9.005627       9.988153       3.347202       0.060000                    
       6.627530      10.409832       2.708976       0.060000                    
       7.541485       9.452624       1.510333       0.060000                    
       5.535081       8.429422       3.539072       0.060000                    
       5.351151       8.481713       1.763753       0.060000                    
       7.085044       6.833085       1.480479       0.060000                    
       5.896590       6.215147       2.661191       0.060000                    
       7.360740       6.750671       4.498059       0.060000                    
       8.274698       5.793469       3.299408       0.060000                    
       9.367145       7.773873       2.469321       0.060000                    
       9.551074       7.721582       4.244639       0.060000                    
      -1.041527       6.760644       5.924201      -0.120000                    
      -0.898086       8.077576       5.158709      -0.120000                    
       0.547341       8.579173       5.147103      -0.120000                    
       1.134346       8.669046       6.557179      -0.120000                    
       0.990910       7.352104       7.322678      -0.120000                    
      -0.454531       6.850507       7.334279      -0.120000                    
      -0.514768       5.981438       5.377354       0.060000                    
      -2.099044       6.517509       6.002696       0.060000                    
      -1.219458       7.919430       4.131447       0.060000                    
      -1.522723       8.828274       5.638201       0.060000                    
       1.150662       7.887660       4.562783       0.060000                    
       0.567874       9.570039       4.698189       0.060000                    
       0.607587       9.448236       7.104026       0.060000                    
       2.191866       8.912170       6.478677       0.060000                    
       1.615542       6.601417       6.843179       0.060000                    
       1.312276       7.510261       8.349932       0.060000                    
      -1.057836       7.542026       7.918596       0.060000                    
      -0.475063       5.859641       7.783193       0.060000                    
       0.202648      10.936784      -4.039773      -0.120000                    
       1.259835      10.218891      -3.198439      -0.120000                    
       2.465926       9.790871      -4.036990      -0.120000                    
       2.051688       8.969469      -5.259571      -0.120000                    
       0.994501       9.687362      -6.100904      -0.120000                    
      -0.211590      10.115382      -5.262352      -0.120000                    
       0.614313      11.884367      -4.380801       0.060000                    
      -0.676236      11.107768      -3.421802       0.060000                    
       1.601499      10.895561      -2.418075       0.060000                    
       0.810037       9.331493      -2.758123       0.060000                    
       2.986696      10.683210      -4.377835       0.060000                    
       3.122763       9.184357      -3.416995       0.060000                    
       1.640023       8.021887      -4.918543       0.060000                    
       2.930573       8.798485      -5.877541       0.060000                    
       1.444299      10.574759      -6.541220       0.060000                    
       0.652837       9.010693      -6.881269       0.060000                    
      -0.732359       9.223042      -4.921508       0.060000                    
      -0.868421      10.721902      -5.882343       0.060000                    
       9.681769       6.266172      -0.364275      -0.120000                    
       9.580041       5.021029      -1.247559      -0.120000                    
       9.680779       5.363956      -2.735249      -0.120000                    