%nprocshared=4                                                                       
%mem=8GB                                                                             
#P pop=chelpg cam-b3lyp/gen scf=qc int=ultrafine charge td(nstates=10)               
                                                                                     
pNA CAM-B3LYP def2-TZVPD Single point - solvent def2-SV(P)                           
                                                                                     
0 1                                                                                  
 C       1.386341       0.000000       0.000000                                 
 C       0.000000       0.000000       0.000000                                 
 C      -0.712907       1.188984      -0.000000                                 
 C      -0.035635       2.384357       0.000131                                 
 C       1.365534       2.410943       0.000833                                 
 C       2.063239       1.195576       0.000133                                 
 H       1.918972      -0.938700       0.000854                                 
 H      -1.791888       1.163049       0.000837                                 
 H      -0.586620       3.315732      -0.002113                                 
 H       3.145392       1.202000      -0.002090                                 
 N      -0.713906      -1.260429       0.001744                                 
 O      -1.931758      -1.232720       0.002551                                 
 O      -0.063858      -2.290656       0.002518                                 
 N       2.037885       3.598040      -0.033161                                 
 H       1.540331       4.445798       0.174764                                 
 H       3.020819       3.607257       0.174736                                 
 C       5.626881       4.525997       3.387374                                 
 C       5.805678       3.114317       2.825153                                 
 C       4.490924       2.537147       2.296625                                 
 C       3.375600       2.600643       3.342099                                 
 C       3.196795       4.012330       3.904321                                 
 C       4.511550       4.589487       4.432842                                 
 H       5.374721       5.196896       2.568852                                 
 H       6.559487       4.834819       3.854747                                 
 H       6.521705       3.153995       2.007047                                 
 H       6.174877       2.468154       3.618776                                 
 H       4.184076       3.112159       1.425522                                 
 H       4.652891       1.496427       2.023867                                 
 H       3.627753       1.929738       4.160616                                 
 H       2.442986       2.291815       2.874720                                 
 H       2.827597       4.658481       3.110691                                 
 H       2.480764       3.972651       4.722414                                 
 H       4.818408       4.014486       5.303944                                 
 H       4.349584       5.630208       4.705601                                 
 C      -0.510440       6.873570      -0.988857                                 
 C      -0.779121       8.377515      -1.071950                                 
 C       0.314665       9.194127      -0.380756                                 
 C       0.551308       8.732945       1.058789                                 
 C       0.819982       7.229006       1.141884                                 
 C      -0.273804       6.412394       0.450691                                 
 H       0.375986       6.645700      -1.577068                                 
 H      -1.373509       6.343690      -1.386255                                 
 H      -0.818684       8.666238      -2.120118                                 
 H      -1.729624       8.588260      -0.586370                                 
 H       1.240824       9.078144      -0.939706                                 
 H       0.011406      10.238894      -0.365689                                 
 H      -0.335118       8.960814       1.647000                                 
 H       1.414364       9.262826       1.456184                                 
 H       1.770485       7.018262       0.656304                                 
 H       0.859538       6.940278       2.190047                                 
 H      -1.199963       6.528377       1.009640                                 
 H       0.029455       5.367627       0.435622                                 
 C       5.482903       3.585815      -1.685019                                 
 C       6.977406       3.705030      -1.379789                                 
 C       7.288447       4.921293      -0.505189                                 
 C       6.719388       6.212842      -1.095942                                 
 C       5.224879       6.093634      -1.401169                                 
 C       4.913836       4.877371      -2.275770                                 
 H       4.955521       3.364976      -0.759401                                 
 H       5.337769       2.781542      -2.403109                                 
 H       7.297594       2.807883      -0.854247                                 
 H       7.517218       3.805077      -2.319080                                 
 H       6.848151       4.764799       0.477302                                 
 H       8.368537       5.023098      -0.422731                                 
 H       7.246766       6.433693      -2.021566                                 
 H       6.864515       7.017122      -0.377850                                 
 H       4.685066       5.993586      -0.461878                                 
 H       4.904690       6.990781      -1.926712                                 
 H       5.354133       5.033864      -3.258261                                 
 H       3.833749       4.775570      -2.358235                                 
 C       3.401232      -3.316604       1.466801                                 
 C       2.455514      -3.679645       2.613412                                 
 C       1.952600      -2.439941       3.355851                                 
 C       3.102775      -1.545550       3.822931                                 
 C       4.048492      -1.182507       2.676321                                 
 C       4.551398      -2.422223       1.933885                                 
 H       2.835396      -2.785470       0.704296                                 
 H       3.818536      -4.233800       1.056637                                 
 H       1.599041      -4.210334       2.202948                                 
 H       2.990147      -4.313585       3.317640                                 
 H       1.316941      -1.866588       2.684405                                 
 H       1.386903      -2.762367       4.227470                                 
 H       3.668611      -2.076682       4.585436                                 
 H       2.685479      -0.628359       4.233093                                 
 H       3.513860      -0.548569       1.972092                                 
 H       4.904957      -0.651830       3.086787                                 
 H       5.187067      -2.995565       2.605327                                 
 H       5.117104      -2.099787       1.062263                                 
 C       3.914892       0.033639      -3.917235                                 
 C       4.899242      -0.462852      -2.856397                                 
 C       4.859931      -1.984947      -2.705751                                 
 C       3.440873      -2.499912      -2.456600                                 
 C       2.456530      -2.003429      -3.517440                                 
 C       2.495841      -0.481333      -3.668086                                 
 H       4.246628      -0.318966      -4.891545                                 
 H       3.898955       1.121221      -3.894917                                 
 H       5.904607      -0.168403      -3.149948                                 
 H       4.637745      -0.012118      -1.901333                                 
 H       5.237257      -2.434820      -3.621639                                 
 H       5.485363      -2.266974      -1.861341                                 
 H       3.109137      -2.147308      -1.482291                                 
 H       3.456810      -3.587507      -2.478926                                 
 H       2.718011      -2.454166      -4.472499                                 
 H       1.451157      -2.297871      -3.223887                                 
 H       2.118505      -0.031459      -2.752189                                 
 H       1.870401      -0.199300      -4.512494                                 
 C      -3.083366      -2.204387      -5.240446                                 
 C      -3.744769      -0.885310      -4.836133                                 
 C      -2.735561       0.107611      -4.255940                                 
 C      -1.925278      -0.502023      -3.110178                                 
 C      -1.263875      -1.821112      -3.514499                                 
 C      -2.273090      -2.814026      -4.094690                                 
 H      -2.414365      -2.015701      -6.077415                                 
 H      -3.860479      -2.908609      -5.529864                                 
 H      -4.202068      -0.441098      -5.717689                                 
 H      -4.501398      -1.092456      -4.082310                                 
 H      -2.049852       0.407740      -5.045454                                 
 H      -3.276784       0.972174      -3.877389                                 
 H      -2.594286      -0.690714      -2.273215                                 
 H      -1.148172       0.202194      -2.820766                                 
 H      -0.507239      -1.613961      -4.268316                                 
 H      -0.806567      -2.265314      -2.632946                                 
 H      -2.958798      -3.114156      -3.305176                                 
 H      -1.731866      -3.678588      -4.473240                                 
                                                                                
      -5.928205       2.802482       0.008469      -0.120000                    
      -6.243173       4.079777       0.789613      -0.120000                    
      -5.746583       5.332209       0.064463      -0.120000                    
      -4.263696       5.233913      -0.299427      -0.120000                    
      -3.948731       3.956618      -1.080584      -0.120000                    
      -4.445314       2.704191      -0.355430      -0.120000                    
      -6.512121       2.803419      -0.909561       0.060000                    
      -6.192918       1.944772       0.623163       0.060000                    
      -7.321437       4.154452       0.913764       0.060000                    
      -5.754612       4.023247       1.760079       0.060000                    
      -6.321773       5.455072      -0.850802       0.060000                    
      -5.888172       6.191013       0.717255       0.060000                    
      -3.679783       5.232976       0.618589       0.060000                    
      -3.998980       6.091628      -0.914129       0.060000                    
      -4.437292       4.013148      -2.051051       0.060000                    
      -2.870466       3.881943      -1.204736       0.060000                    
      -3.870135       2.581318       0.559839       0.060000                    
      -4.303728       1.845382      -1.008213       0.060000                    
      -5.809279      -4.224793      -0.924079      -0.120000                    
      -4.916581      -3.014598      -1.205875      -0.120000                    
      -5.142653      -1.888021      -0.195585      -0.120000                    
      -6.618803      -1.499321      -0.091104      -0.120000                    
      -7.511509      -2.709510       0.190693      -0.120000                    
      -7.285430      -3.836093      -0.819598      -0.120000                    
      -5.500286      -4.672951       0.017888       0.060000                    
      -5.694402      -4.938452      -1.737147       0.060000                    
      -3.876584      -3.328955      -1.149138       0.060000                    
      -5.143593      -2.639401      -2.201559       0.060000                    
      -4.801471      -2.223588       0.781463       0.060000                    
      -4.575306      -1.016139      -0.514400       0.060000                    
      -6.927797      -1.051163      -1.033072       0.060000                    
      -6.733680      -0.785663       0.721963       0.060000                    
      -7.284496      -3.084706       1.186377       0.060000                    
      -8.551498      -2.395159       0.133954       0.060000                    
      -7.626612      -3.500527      -1.796647       0.060000                    
      -7.852777      -4.707976      -0.500785       0.060000                    
      -2.354057      -0.145947       3.953493      -0.120000                    
      -2.618468       1.273502       3.447434      -0.120000                    
      -1.348988       2.127562       3.447032      -0.120000                    
      -0.656058       2.125253       4.811150      -0.120000                    
      -0.391656       0.705805       5.317220      -0.120000                    
      -1.661137      -0.148255       5.317622      -0.120000                    
      -1.713742      -0.656746       3.237430       0.060000                    
      -3.305684      -0.664983       4.046069       0.060000                    
      -2.998197       1.214672       2.429631       0.060000                    
      -3.353320       1.743268       4.097795       0.060000                    
      -0.660268       1.726371       2.706529       0.060000                    
      -1.618751       3.151214       3.195904       0.060000                    
      -1.296389       2.636048       5.527219       0.060000                    
       0.295559       2.644291       4.718585       0.060000                    
       0.343197       0.236027       4.666852       0.060000                    
      -0.011928       0.764636       6.335022       0.060000                    
      -2.349852       0.252930       6.058110       0.060000                    
      -1.391373      -1.171906       5.568749       0.060000                    
      -1.043944      -7.559742      -1.317071      -0.120000                    
      -0.327990      -6.902243      -2.498596      -0.120000                    
       1.116614      -6.530254      -2.158375      -0.120000                    
       1.206047      -5.680469      -0.889163      -0.120000                    
       0.490089      -6.337968       0.292348      -0.120000                    
      -0.954511      -6.709957      -0.047860      -0.120000                    
      -0.580317      -8.524602      -1.122837       0.060000                    
      -2.092785      -7.690136      -1.574958       0.060000                    
      -0.319916      -7.600741      -3.332629       0.060000                    
      -0.865519      -5.996220      -2.770368       0.060000                    
       1.684339      -7.445485      -2.004733       0.060000                    
       1.533719      -5.962117      -2.987229       0.060000                    
       0.742415      -4.715597      -1.083404       0.060000                    
       2.254884      -5.550063      -0.631283       0.060000                    
       1.027617      -7.243979       0.564127       0.060000                    
       0.482022      -5.639465       1.126386       0.060000                    
      -1.522233      -5.794721      -0.201509       0.060000                    
      -1.371614      -7.278089       0.780987       0.060000                    
      -1.077734       4.382092      -6.014396      -0.120000                    
      -1.811063       3.619948      -4.908823      -0.120000                    
      -1.122040       3.775359      -3.551570      -0.120000                    
       0.361211       3.405413      -3.615876      -0.120000                    
       1.094540       4.167557      -4.721449      -0.120000                    
       0.405517       4.012146      -6.078701      -0.120000                    
      -1.161763       5.448545      -5.816140       0.060000                    
      -1.538555       4.138340      -6.969268       0.060000                    
      -2.823940       4.009260      -4.831115       0.060000                    
      -1.831648       2.563845      -5.169355       0.060000                    
      -1.208256       4.812535      -3.234622       0.060000                    
      -1.613087       3.119875      -2.835364       0.060000                    
       0.445240       2.338960      -3.814131       0.060000                    
       0.822028       3.649163      -2.661017       0.060000                    
       1.115121       5.223671      -4.460923       0.060000                    
       2.107417       3.778244      -4.799157       0.060000                    
       0.491733       2.974970      -6.395650       0.060000                    
       0.896558       4.667624      -6.794913       0.060000                    
      -1.983101      -4.555944       2.735390      -0.120000                    
      -1.703829      -3.921569       4.099389      -0.120000                    
      -2.496567      -4.598500       5.219365      -0.120000                    
      -3.993747      -4.654412       4.909067      -0.120000                    
      -4.273019      -5.288787       3.545068      -0.120000                    
      -3.480281      -4.611856       2.425092      -0.120000                    
      -1.590218      -5.570495       2.736800       0.060000                    
      -1.491029      -3.961808       1.968303       0.060000                    
      -0.642299      -4.018529       4.317178       0.060000                    
      -1.986400      -2.871722       4.058994       0.060000                    
      -2.128397      -5.615067       5.340505       0.060000                    
      -2.352748      -4.033170       6.137742       0.060000                    
      -4.386623      -3.639868       4.907655       0.060000                    
      -4.485812      -5.248555       5.676152       0.060000                    
      -3.990448      -6.338635       3.585464       0.060000                    
      -5.334545      -5.191839       3.327286       0.060000                    
      -3.848451      -3.595290       2.303952       0.060000                    
      -3.624100      -5.177186       1.506716       0.060000                    
      10.451382      -1.000901       1.617778      -0.120000                    
      11.365061      -0.002128       0.904679      -0.120000                    
      10.876601       1.438685       1.067259      -0.120000                    
       9.414053       1.599014       0.647483      -0.120000                    
       8.500371       0.600235       1.360590      -0.120000                    
       8.988831      -0.840577       1.198009      -0.120000                    
      10.525352      -0.835304       2.690521       0.060000                    
      10.776202      -2.008839       1.368302       0.060000                    
      12.363946      -0.080531       1.328640       0.060000                    
      11.385077      -0.244879      -0.155675       0.060000                    
      10.971122       1.721891       2.113444       0.060000                    
      11.490084       2.086137       0.444200       0.060000                    
       9.340091       1.433409      -0.425263       0.060000                    
       9.089231       2.606946       0.896967       0.060000                    
       8.480359       0.842991       2.420936       0.060000                    
       7.501489       0.678642       0.936619       0.060000                    
       8.894317      -1.123778       0.151830       0.060000                    
       8.375355      -1.488025       1.821074       0.060000                    
       6.450138      -5.646427       0.217077      -0.120000                    
       5.883337      -6.984358      -0.262021      -0.120000                    
       6.364976      -7.339511      -1.670185      -0.120000                    
       6.096032      -6.212424      -2.669344      -0.120000                    
       6.662842      -4.874482      -2.190248      -0.120000                    
       6.181195      -4.519323      -0.782083      -0.120000                    
       7.525793      -5.749733       0.343387       0.060000                    
       5.981817      -5.389830       1.164932       0.060000                    
       6.207339      -7.764657       0.423335       0.060000                    
       4.797423      -6.918240      -0.272373       0.060000                    
       7.436494      -7.524466      -1.634801       0.060000                    
       5.838818      -8.231853      -2.002802       0.060000                    
       5.020382      -6.109112      -2.795648       0.060000                    
       6.564358      -6.469016      -3.617193       0.060000                    
       7.748745      -4.940599      -2.179887       0.060000                    
       6.338832      -4.094189      -2.875610       0.060000                    
       5.109680      -4.334379      -0.817461       0.060000                    
       6.707350      -3.626985      -0.449458       0.060000                    
       6.383680       9.673343       4.083971      -0.120000                    
       5.309336       8.600087       4.270405      -0.120000                    
       4.935546       7.927512       2.947930      -0.120000                    
       4.546677       8.947517       1.875841      -0.120000                    
       5.621032      10.020770       1.689397      -0.120000                    
       5.994818      10.693341       3.011879      -0.120000                    
       7.310401       9.189106       3.783290       0.060000                    
       6.520255      10.196291       5.028112       0.060000                    
       5.690156       7.841402       4.950808       0.060000                    
       4.419347       9.067554       4.686422       0.060000                    
       5.792436       7.359134       2.592541       0.060000                    
       4.089516       7.265802       3.121380       0.060000                    
       3.619964       9.431746       2.176519       0.060000                    
       4.410106       8.424575       0.931691       0.060000                    
       6.511010       9.553306       1.273389       0.060000                    
       5.240208      10.779451       1.009001       0.060000                    
       5.137929      11.261719       3.367268       0.060000                    
       6.840842      11.355058       2.838431       0.060000                    
      -1.193001       6.767579       6.148575      -0.120000                    
      -0.228884       5.597438       6.353853      -0.120000                    
       1.200598       6.072866       6.621387      -0.120000                    
       1.694338       7.039930       5.543446      -0.120000                    
       0.730231       8.210069       5.338158      -0.120000                    
      -0.699252       7.734653       5.070631      -0.120000                    
      -1.285519       7.310573       7.086790       0.060000                    
      -2.159864       6.372220       5.844466       0.060000                    
      -0.566824       5.014167       7.207759       0.060000                    
      -0.228996       4.984987       5.454672       0.060000                    
       1.223437       6.582334       7.582395       0.060000                    
       1.857858       5.205980       6.638173       0.060000                    
       1.786865       6.496934       4.605221       0.060000                    
       2.661203       7.435294       5.847546       0.060000                    
       0.730336       8.822526       6.237340       0.060000                    
       1.068167       8.793347       4.484268       0.060000                    
      -0.722100       7.225175       4.109627       0.060000                    
      -1.356522       8.601528       5.053848       0.060000                    
      -7.631967      -0.490783       6.103564      -0.120000                    
      -7.323208      -1.380300       4.897592      -0.120000                    
      -6.196614      -0.806603       4.035805      -0.120000                    
      -6.469903       0.641626       3.624759      -0.120000                    
      -6.778661       1.531143       4.830732      -0.120000                    
      -7.905255       0.957447       5.692519      -0.120000                    
      -6.776049      -0.505967       6.775019       0.060000                    
      -8.513637      -0.881513       6.607201       0.060000                    
      -7.020485      -2.361262       5.257557       0.060000                    
      -8.220222      -1.462471       4.287465       0.060000                    
      -5.271528      -0.837057       4.607584       0.060000                    
      -6.104372      -1.411738       3.136372       0.060000                    
      -7.325821       0.656810       2.953304       0.060000                    
      -5.588225       1.032362       3.121127       0.060000                    
      -5.881647       1.613314       5.440859       0.060000                    
      -7.081383       2.512105       4.470767       0.060000                    
      -8.830351       0.987902       5.120749       0.060000                    
      -7.997504       1.562588       6.591953       0.060000                    
       8.981817      -0.426585       5.773624      -0.120000                    
       8.337311       0.922684       6.097617      -0.120000                    
       6.940276       0.760538       6.700126      -0.120000                    
       6.036481      -0.111108       5.825820      -0.120000                    
       6.680995      -1.460383       5.501826      -0.120000                    
       8.078037      -1.298231       4.899323      -0.120000                    
       9.175274      -0.952386       6.706241       0.060000                    
       9.913406      -0.247944       5.240895       0.060000                    
       8.966680       1.445395       6.814734       0.060000                    
       8.254672       1.498298       5.178088       0.060000                    
       7.035355       0.291997       7.677409       0.060000                    
       6.486690       1.744812       6.796117       0.060000                    
       5.843039       0.414693       4.893208       0.060000                    
       5.104900      -0.289755       6.358548       0.060000                    
       6.763641      -2.035992       6.421361       0.060000                    
       6.051633      -1.983089       4.784715       0.060000                    
       7.982951      -0.829696       3.922034       0.060000                    
       8.531614      -2.282516       4.803334       0.060000                    
       4.995746       7.041933      -7.011659      -0.120000                    
       5.281760       7.391405      -5.549824      -0.120000                    
       6.768171       7.658978      -5.304805      -0.120000                    
       7.647149       6.509480      -5.801828      -0.120000                    
       7.361126       6.159997      -7.263661      -0.120000                    
       5.874715       5.892424      -7.508680      -0.120000                    
       5.192228       7.919590      -7.623830       0.060000                    
       3.952755       6.745611      -7.100664       0.060000                    
       4.719993       8.286070      -5.289880       0.060000                    
       4.971354       6.556218      -4.925509       0.060000                    
       7.050044       8.566388      -5.834681       0.060000                    
       6.927713       7.781399      -4.235561       0.060000                    
       7.450665       5.631818      -5.189648       0.060000                    
       8.690130       6.805791      -5.712820       0.060000                    
       7.671546       6.995183      -7.887972       0.060000                    
       7.922894       5.265332      -7.523604       0.060000                    
       5.592849       4.985008      -6.978806       0.060000                    
       5.715173       5.770002      -8.577922       0.060000                    
       3.717170      -7.641902       2.945812      -0.120000                    
       3.034749      -7.640357       4.315195      -0.120000                    
       3.851231      -8.399274       5.363262      -0.120000                    