%nprocshared=4                                                                       
%mem=8GB                                                                             
#P pop=chelpg cam-b3lyp/gen scf=qc int=ultrafine charge td(nstates=10)               
                                                                                     
pNA CAM-B3LYP def2-TZVPD Single point - solvent def2-SV(P)                           
                                                                                     
0 1                                                                                  
 C       1.386341       0.000000       0.000000                                 
 C       0.000000       0.000000       0.000000                                 
 C      -0.712907       1.188984      -0.000000                                 
 C      -0.035635       2.384357       0.000131                                 
 C       1.365534       2.410943       0.000833                                 
 C       2.063239       1.195576       0.000133                                 
 H       1.918972      -0.938700       0.000854                                 
 H      -1.791888       1.163049       0.000837                                 
 H      -0.586620       3.315732      -0.002113                                 
 H       3.145392       1.202000      -0.002090                                 
 N      -0.713906      -1.260429       0.001744                                 
 O      -1.931758      -1.232720       0.002551                                 
 O      -0.063858      -2.290656       0.002518                                 
 N       2.037885       3.598040      -0.033161                                 
 H       1.540331       4.445798       0.174764                                 
 H       3.020819       3.607257       0.174736                                 
 C       1.811159       9.420061       0.779706                                 
 C       3.250902       9.704488       1.212275                                 
 C       4.200259       8.568265       0.826626                                 
 C       3.706787       7.211764       1.333945                                 
 C       2.267044       6.927337       0.901375                                 
 C       1.317684       8.063565       1.287037                                 
 H       1.768044       9.421305      -0.307377                                 
 H       1.166609      10.197787       1.183808                                 
 H       3.586171      10.617926       0.725653                                 
 H       3.272063       9.823318       2.293535                                 
 H       4.272285       8.528504      -0.258206                                 
 H       5.176853       8.768158       1.262566                                 
 H       3.749902       7.210519       2.421028                                 
 H       4.351337       6.434037       0.929843                                 
 H       2.245883       6.808506      -0.179884                                 
 H       1.931775       6.013907       1.388003                                 
 H       1.245661       8.103320       2.371857                                 
 H       0.341093       7.863676       0.851089                                 
 C       4.062595      -3.715333       0.739904                                 
 C       5.567244      -3.474606       0.601958                                 
 C       5.882067      -2.393036      -0.433448                                 
 C       5.221855      -2.681894      -1.783126                                 
 C       3.717206      -2.922621      -1.645180                                 
 C       3.402373      -4.004189      -0.609777                                 
 H       3.605794      -2.825045       1.166946                                 
 H       3.905796      -4.570570       1.393741                                 
 H       5.958413      -3.157176       1.566215                                 
 H       6.040752      -4.403082       0.289784                                 
 H       5.512976      -1.439059      -0.062900                                 
 H       6.959933      -2.351092      -0.575606                                 
 H       5.678660      -3.572178      -2.210177                                 
 H       5.378657      -1.826662      -2.436976                                 
 H       3.243688      -1.994143      -1.333009                                 
 H       3.326027      -3.240050      -2.609441                                 
 H       3.771477      -4.958164      -0.980331                                 
 H       2.324517      -4.046144      -0.467620                                 
 C       1.690120       4.827473      -3.016239                                 
 C       0.562645       4.502827      -3.998231                                 
 C       1.091657       4.225773      -5.406929                                 
 C       1.986895       5.357332      -5.915988                                 
 C       3.114361       5.681989      -4.933995                                 
 C       2.585349       5.959043      -3.525298                                 
 H       2.299582       3.936638      -2.879738                                 
 H       1.249510       5.131957      -2.069316                                 
 H       0.037048       3.618578      -3.644149                                 
 H      -0.115415       5.352502      -4.042376                                 
 H       1.672218       3.305920      -5.385632                                 
 H       0.244829       4.121925      -6.082097                                 
 H       1.377437       6.248180      -6.052493                                 
 H       2.427496       5.052850      -6.862915                                 
 H       3.792430       4.832313      -4.889847                                 
 H       3.639961       6.566233      -5.288090                                 
 H       2.004797       6.878895      -3.546591                                 
 H       3.432190       6.062893      -2.850135                                 
 C       5.080362       1.092762      -2.864687                                 
 C       4.899632       1.880727      -4.163665                                 
 C       6.099511       2.783310      -4.458110                                 
 C       6.434391       3.695540      -3.276287                                 
 C       6.615108       2.907573      -1.977304                                 
 C       5.415233       2.005003      -1.682864                                 
 H       5.894828       0.383978      -2.998422                                 
 H       4.153948       0.566107      -2.645746                                 
 H       4.784872       1.176183      -4.984650                                 
 H       4.011253       2.502124      -4.072669                                 
 H       6.963071       2.155980      -4.668699                                 
 H       5.864535       3.403686      -5.320472                                 
 H       5.619912       4.404331      -3.142543                                 
 H       7.360793       4.222202      -3.495220                                 
 H       7.503500       2.286178      -2.068306                                 
 H       6.729878       3.612115      -1.156316                                 
 H       4.551673       2.632333      -1.472275                                 
 H       5.650206       1.384614      -0.820497                                 
 C      -3.986557       1.082926       2.361405                                 
 C      -4.800325       0.357776       3.435127                                 
 C      -5.531738      -0.862911       2.873034                                 
 C      -6.381761      -0.509454       1.650936                                 
 C      -5.567993       0.215695       0.577214                                 
 C      -4.836589       1.436384       1.139304                                 
 H      -3.173676       0.433500       2.043414                                 
 H      -3.590493       2.002418       2.787114                                 
 H      -4.123483       0.026670       4.219897                                 
 H      -5.537034       1.048976       3.839074                                 
 H      -4.793293      -1.606113       2.579775                                 
 H      -6.184029      -1.263742       3.646028                                 
 H      -7.194645       0.139968       1.968935                                 
 H      -6.777825      -1.428947       1.225226                                 
 H      -4.831284      -0.475505       0.173266                                 
 H      -6.244834       0.546802      -0.207556                                 
 H      -5.575025       2.179585       1.432565                                 
 H      -4.184289       1.837213       0.366313                                 
 C      -2.593189       6.303813       0.082646                                 
 C      -3.392966       7.510562       0.577676                                 
 C      -4.690352       7.092278       1.272589                                 
 C      -5.535705       6.164149       0.397976                                 
 C      -4.735928       4.957402      -0.097053                                 
 C      -3.438545       5.375682      -0.791958                                 
 H      -2.240631       5.742691       0.945515                                 
 H      -1.750318       6.662363      -0.504333                                 
 H      -2.782127       8.065436       1.286588                                 
 H      -3.642326       8.136521      -0.276537                                 
 H      -4.438839       6.569222       2.192789                                 
 H      -5.270371       7.985976       1.493014                                 
 H      -5.888267       6.725269      -0.464884                                 
 H      -6.378579       5.805597       0.984964                                 
 H      -4.486570       4.331438       0.757168                                 
 H      -5.346766       4.402527      -0.805966                                 
 H      -3.690054       5.898741      -1.712167                                 
 H      -2.858517       4.481982      -1.012380                                 
                                                                                
      -0.279536      -6.926323       0.196798      -0.120000                    
      -1.387709      -7.258130      -0.804564      -0.120000                    
      -2.413283      -6.128491      -0.919521      -0.120000                    
      -2.975799      -5.723867       0.444595      -0.120000                    
      -1.867626      -5.392069       1.445954      -0.120000                    
      -0.842061      -6.521698       1.560912      -0.120000                    
       0.307998      -6.099267      -0.196178       0.060000                    
       0.347006      -7.806280       0.326245       0.060000                    
      -0.936838      -7.419093      -1.781479       0.060000                    
      -1.898759      -8.159069      -0.471743       0.060000                    
      -1.928589      -5.263025      -1.366328       0.060000                    
      -3.234543      -6.467167      -1.547647       0.060000                    
      -3.563333      -6.550923       0.837573       0.060000                    
      -3.602341      -4.843919       0.315144       0.060000                    
      -1.356585      -4.491129       1.113129       0.060000                    
      -2.318506      -5.231106       2.422866       0.060000                    
      -1.326743      -7.387171       2.007710       0.060000                    
      -0.020788      -6.183029       2.189028       0.060000                    
       2.547837      -3.439052       4.718715      -0.120000                    
       1.271173      -4.172024       4.301847      -0.120000                    
       0.465934      -3.379104       3.270388      -0.120000                    
       0.179584      -1.951627       3.740850      -0.120000                    
       1.456245      -1.218659       4.157725      -0.120000                    
       2.261483      -2.011580       5.189186      -0.120000                    
       3.218673      -3.395178       3.863303       0.060000                    
       3.012808      -3.987482       5.535160       0.060000                    
       1.546777      -5.129939       3.865982       0.060000                    
       0.652908      -4.322826       5.184282       0.060000                    
       1.036402      -3.332390       2.345200       0.060000                    
      -0.481754      -3.887009       3.104124       0.060000                    
      -0.491256      -1.995505       4.596270       0.060000                    
      -0.285391      -1.403202       2.924413       0.060000                    
       2.074509      -1.067857       3.275290       0.060000                    
       1.180643      -0.260740       4.593582       0.060000                    
       1.691015      -2.058293       6.114374       0.060000                    
       3.209175      -1.503671       5.355441       0.060000                    
       0.458389      -0.297601      -6.391518      -0.120000                    
      -0.566081      -0.747100      -5.347847      -0.120000                    
       0.015295      -0.736852      -3.932615      -0.120000                    
       1.315706      -1.537821      -3.841229      -0.120000                    
       2.340186      -1.088323      -4.884896      -0.120000                    
       1.758800      -1.098571      -6.300132      -0.120000                    
       0.685135       0.753515      -6.225943       0.060000                    
       0.031235      -0.440009      -7.381866       0.060000                    
      -1.415578      -0.068216      -5.379622       0.060000                    
      -0.883479      -1.760126      -5.585963       0.060000                    
       0.220632       0.293081      -3.648536       0.060000                    
      -0.712634      -1.177343      -3.254542       0.060000                    
       1.088965      -2.588942      -4.006791       0.060000                    
       1.742869      -1.395415      -2.850876       0.060000                    
       2.657583      -0.075298      -4.646780       0.060000                    
       3.189673      -1.767206      -4.853125       0.060000                    
       1.553468      -2.128509      -6.584198       0.060000                    
       2.486729      -0.658079      -6.978204       0.060000                    
       6.678301       4.269974       1.980487      -0.120000                    
       7.674921       5.242969       2.613597      -0.120000                    
       8.119835       4.783898       4.003691      -0.120000                    
       6.929411       4.503700       4.923150      -0.120000                    
       5.932792       3.530713       4.290042      -0.120000                    
       5.487889       3.989773       2.899948      -0.120000                    
       7.189641       3.331258       1.777930       0.060000                    
       6.307700       4.705143       1.054798       0.060000                    
       8.551331       5.309345       1.972390       0.060000                    
       7.199474       6.217291       2.704903       0.060000                    
       8.700684       3.869997       3.898626       0.060000                    
       8.727465       5.567887       4.450759       0.060000                    
       6.418081       5.442413       5.125709       0.060000                    
       7.300014       4.068531       5.848838       0.060000                    
       6.408239       2.556392       4.198737       0.060000                    
       5.056392       3.464336       4.931253       0.060000                    
       4.907029       4.903677       3.005010       0.060000                    
       4.880258       3.205784       2.452880       0.060000                    
      -5.129333      -3.644497      -2.518213      -0.120000                    
      -6.536047      -3.072526      -2.705032      -0.120000                    
      -6.741056      -2.502610      -4.110084      -0.120000                    
      -5.656381      -1.489487      -4.481680      -0.120000                    
      -4.249657      -2.061451      -4.294854      -0.120000                    
      -4.044652      -2.631370      -2.889794      -0.120000                    
      -5.021854      -4.518798      -3.156753       0.060000                    
      -5.002717      -3.922090      -1.473932       0.060000                    
      -7.259480      -3.868977      -2.543953       0.060000                    
      -6.685907      -2.274502      -1.980908       0.060000                    
      -6.711271      -3.321855      -4.825320       0.060000                    
      -7.708137      -2.005419      -4.145913       0.060000                    
      -5.763860      -0.615186      -3.843140       0.060000                    
      -5.782988      -1.211895      -5.525959       0.060000                    
      -4.099807      -2.859482      -5.018985       0.060000                    
      -3.526233      -1.265007      -4.455939       0.060000                    
      -4.074443      -1.812120      -2.174569       0.060000                    
      -3.077577      -3.128565      -2.853981       0.060000                    
      -3.571424       3.635782      -5.231286      -0.120000                    
      -2.620980       2.759671      -4.412782      -0.120000                    
      -3.337602       1.555653      -3.798133      -0.120000                    
      -4.570098       1.971885      -2.992696      -0.120000                    
      -5.520543       2.847997      -3.811201      -0.120000                    
      -4.803924       4.052011      -4.425840      -0.120000                    
      -3.899380       3.073064      -6.102758       0.060000                    
      -3.038583       4.532735      -5.539883       0.060000                    
      -1.831430       2.397225      -5.067597       0.060000                    
      -2.199134       3.360341      -3.609714       0.060000                    
      -3.654241       0.892671      -4.600521       0.060000                    
      -2.646000       1.041101      -3.134278       0.060000                    
      -4.242146       2.534600      -2.121215       0.060000                    
      -5.102931       1.074931      -2.684096       0.060000                    
      -5.942389       2.247327      -4.614268       0.060000                    
      -6.310097       3.210439      -3.156377       0.060000                    
      -4.487273       4.714995      -3.623458       0.060000                    
      -5.495526       4.566563      -5.089695       0.060000                    
       0.556642       6.483643       5.090552      -0.120000                    
       0.444892       5.025176       5.539255      -0.120000                    
      -0.139129       4.131519       4.443222      -0.120000                    
      -1.468506       4.670964       3.911408      -0.120000                    
      -1.356766       6.129433       3.462702      -0.120000                    
      -0.772745       7.023089       4.558735      -0.120000                    
       1.299671       6.547758       4.298438       0.060000                    
       0.860732       7.087335       5.942945       0.060000                    
       1.438912       4.661786       5.791218       0.060000                    
      -0.205985       4.978117       6.409768       0.060000                    
       0.570390       4.082245       3.619956       0.060000                    
      -0.307032       3.139194       4.856512       0.060000                    
      -2.211536       4.606850       4.703522       0.060000                    
      -1.772597       4.067271       3.059014       0.060000                    
      -0.705880       6.176489       2.592192       0.060000                    
      -2.350786       6.492833       3.210742       0.060000                    
      -1.482263       7.072364       5.382000       0.060000                    
      -0.604833       8.015411       4.145448       0.060000                    
       3.162735      -6.192249      -6.742815      -0.120000                    
       3.875797      -5.798532      -5.447691      -0.120000                    
       3.391613      -6.623241      -4.253364      -0.120000                    
       1.869366      -6.579250      -4.105669      -0.120000                    
       1.156308      -6.972973      -5.400807      -0.120000                    
       1.640493      -6.148253      -6.595130      -0.120000                    
       3.457177      -7.205604      -7.007605       0.060000                    
       3.456238      -5.497105      -7.526471       0.060000                    
       4.943535      -5.964057      -5.574494       0.060000                    
       3.677994      -4.747574      -5.247535       0.060000                    
       3.697127      -7.657301      -4.398146       0.060000                    
       3.840542      -6.220428      -3.347859       0.060000                    
       1.574925      -5.565905      -3.840884       0.060000                    
       1.575867      -7.274400      -3.322026       0.060000                    
       1.354103      -8.023929      -5.600966       0.060000                    
       0.088567      -6.807451      -5.273994       0.060000                    
       1.334979      -5.114204      -6.450352       0.060000                    
       1.191563      -6.551067      -7.500635       0.060000                    
       3.481440       9.450181      -3.375231      -0.120000                    
       2.405944       9.826192      -4.396426      -0.120000                    
       2.977541      10.645244      -5.555489      -0.120000                    
       3.754502      11.868542      -5.064685      -0.120000                    
       4.829998      11.492520      -4.043494      -0.120000                    
       4.258391      10.673479      -2.884429      -0.120000                    
       4.179680       8.759905      -3.843871       0.060000                    
       3.000203       8.978354      -2.521191       0.060000                    
       1.972244       8.912415      -4.797057       0.060000                    
       1.642693      10.418117      -3.895607       0.060000                    
       3.651457      10.012532      -6.129189       0.060000                    
       2.154280      10.984207      -6.180845       0.060000                    
       3.056256      12.558823      -4.596056       0.060000                    
       4.235738      12.340360      -5.918727       0.060000                    
       5.593248      10.900596      -4.544312       0.060000                    
       5.263698      12.406307      -3.642858       0.060000                    
       3.584485      11.306182      -2.310730       0.060000                    
       5.081662      10.334506      -2.259074       0.060000                    
      -2.643635      10.241162      -3.964792      -0.120000                    
      -3.950243       9.955105      -4.707662      -0.120000                    
      -4.282247       8.461679      -4.728999      -0.120000                    
      -3.121075       7.623911      -5.268325      -0.120000                    
      -1.814469       7.909960      -4.525457      -0.120000                    
      -1.482463       9.403395      -4.504118      -0.120000                    
      -2.783286      10.004786      -2.912017       0.060000                    
      -2.398180      11.294162      -4.085789       0.060000                    
      -4.758150      10.483753      -4.206273       0.060000                    
      -3.850512      10.303797      -5.733406       0.060000                    
      -4.500910       8.139564      -3.713091       0.060000                    
      -5.148732       8.307292      -5.368538       0.060000                    
      -2.981425       7.860290      -6.321099       0.060000                    
      -3.366521       6.570911      -5.147324       0.060000                    
      -1.914199       7.561277      -3.499711       0.060000                    
      -1.006552       7.381320      -5.026840       0.060000                    
      -1.263801       9.725511      -5.520025       0.060000                    
      -0.615979       9.557781      -3.864577       0.060000                    
       8.318819       7.275402      -3.385177      -0.120000                    
       7.291720       7.771852      -2.365601      -0.120000                    
       7.697557       9.112203      -1.749376      -0.120000                    
       9.110957       9.070029      -1.164990      -0.120000                    
      10.138061       8.573574      -2.184555      -0.120000                    
       9.732216       7.233224      -2.800784      -0.120000                    
       8.315529       7.950028      -4.238719       0.060000                    
       8.041487       6.270778      -3.697162       0.060000                    
       6.334801       7.895782      -2.868127       0.060000                    
       7.207385       7.034707      -1.569865       0.060000                    
       7.664289       9.875316      -2.524094       0.060000                    
       6.998549       9.353849      -0.951429       0.060000                    
       9.114247       8.395402      -0.311449       0.060000                    
       9.388299      10.074660      -0.852999       0.060000                    
      10.222392       9.310724      -2.980303       0.060000                    
      11.094972       8.449646      -1.682033       0.060000                    
       9.765488       6.470126      -2.026070       0.060000                    
      10.431228       6.991582      -3.598738       0.060000                    
      -6.878110      -4.447097       6.830784      -0.120000                    
      -6.234848      -3.606920       5.725724      -0.120000                    
      -4.800313      -4.049685       5.430671      -0.120000                    
      -3.940457      -4.087882       6.695654      -0.120000                    
      -4.583719      -4.928059       7.800715      -0.120000                    
      -6.018255      -4.485295       8.095769      -0.120000                    
      -7.004411      -5.464094       6.465456       0.060000                    
      -7.844069      -4.013002       7.079966       0.060000                    
      -6.825511      -3.714755       4.818494       0.060000                    
      -6.219049      -2.566790       6.044340       0.060000                    
      -4.826467      -5.047476       4.997839       0.060000                    
      -4.356453      -3.345859       4.729747       0.060000                    
      -3.814159      -3.070888       7.060991       0.060000                    
      -2.974501      -4.521980       6.446482       0.060000                    
      -4.599521      -5.968192       7.482108       0.060000                    
      -3.993059      -4.820227       8.707953       0.060000                    
      -5.992105      -3.487506       8.528609       0.060000                    
      -6.462123      -5.189118       8.796689       0.060000                    
      -7.846203      -4.925479       0.251848      -0.120000                    
      -7.153400      -6.036465      -0.539741      -0.120000                    
      -7.305891      -7.401361       0.134680      -0.120000                    
      -6.854599      -7.372181       1.596359      -0.120000                    
      -7.547392      -6.261198       2.387951      -0.120000                    
      -7.394901      -4.896302       1.713530      -0.120000                    
      -8.920341      -5.095906       0.222988       0.060000                    
      -7.603427      -3.968969      -0.206078       0.060000                    
      -7.598885      -6.086805      -1.530985       0.060000                    
      -6.093657      -5.801741      -0.613758       0.060000                    
      -8.353960      -7.691099       0.100127       0.060000                    
      -6.696533      -8.124783      -0.402922       0.060000                    
      -5.780451      -7.201757       1.625221       0.060000                    
      -7.097365      -8.328692       2.054287       0.060000                    
      -8.607144      -6.495921       2.461964       0.060000                    
      -7.101907      -6.210856       3.379194       0.060000                    
      -6.346833      -4.606563       1.748082       0.060000                    
      -8.004269      -4.172879       2.251128       0.060000                    
      11.432510      -1.632656       2.212177      -0.120000                    
      11.113816      -1.897235       0.739325      -0.120000                    
      10.915100      -0.599348      -0.046199      -0.120000                    