%nprocshared=4                                                                       
%mem=8GB                                                                             
#P pop=chelpg cam-b3lyp/gen scf=qc int=ultrafine charge td(nstates=10)               
                                                                                     
pNA CAM-B3LYP def2-TZVPD Single point - solvent def2-SV(P)                           
                                                                                     
0 1                                                                                  
 C       1.386341       0.000000       0.000000                                 
 C       0.000000       0.000000       0.000000                                 
 C      -0.712907       1.188984      -0.000000                                 
 C      -0.035635       2.384357       0.000131                                 
 C       1.365534       2.410943       0.000833                                 
 C       2.063239       1.195576       0.000133                                 
 H       1.918972      -0.938700       0.000854                                 
 H      -1.791888       1.163049       0.000837                                 
 H      -0.586620       3.315732      -0.002113                                 
 H       3.145392       1.202000      -0.002090                                 
 N      -0.713906      -1.260429       0.001744                                 
 O      -1.931758      -1.232720       0.002551                                 
 O      -0.063858      -2.290656       0.002518                                 
 N       2.037885       3.598040      -0.033161                                 
 H       1.540331       4.445798       0.174764                                 
 H       3.020819       3.607257       0.174736                                 
 C       7.853842       3.580912      -1.611426                                 
 C       6.490327       3.331923      -2.259315                                 
 C       5.494258       4.450310      -1.946199                                 
 C       5.375825       4.708237      -0.442702                                 
 C       6.739348       4.957232       0.205189                                 
 C       7.735417       3.838845      -0.107928                                 
 H       8.307029       4.452473      -2.079035                                 
 H       8.477512       2.702956      -1.765457                                 
 H       6.622763       3.276176      -3.337707                                 
 H       6.090827       2.394082      -1.879186                                 
 H       5.833692       5.363742      -2.429994                                 
 H       4.516877       4.162165      -2.327526                                 
 H       4.922638       3.836676       0.024907                                 
 H       4.752163       5.586199      -0.288669                                 
 H       7.138847       5.895072      -0.174940                                 
 H       6.606898       5.012979       1.283587                                 
 H       7.395983       2.925413       0.375867                                 
 H       8.712797       4.126989       0.273400                                 
 C      -5.901732       1.640081       3.589052                                 
 C      -5.514526       0.201270       3.936555                                 
 C      -4.000244      -0.012285       3.888211                                 
 C      -3.400298       0.436376       2.554141                                 
 C      -3.787509       1.875176       2.206644                                 
 C      -5.301790       2.088742       2.254996                                 
 H      -5.534967       2.298098       4.374018                                 
 H      -6.985763       1.701634       3.520981                                 
 H      -5.864829      -0.019766       4.942518                                 
 H      -5.983122      -0.468087       3.218195                                 
 H      -3.541867       0.566049       4.687606                                 
 H      -3.794124      -1.072008       4.023163                                 
 H      -3.767060      -0.221647       1.769182                                 
 H      -2.316272       0.374811       2.622218                                 
 H      -3.318913       2.544533       2.925004                                 
 H      -3.437199       2.096217       1.200682                                 
 H      -5.760161       1.510402       1.455595                                 
 H      -5.507909       3.148465       2.120044                                 
 C       4.953024      -1.860899      -0.477578                                 
 C       4.040279      -1.902654      -1.704806                                 
 C       4.836821      -1.968470      -3.009495                                 
 C       5.874469      -0.848095      -3.104838                                 
 C       6.787217      -0.806339      -1.877624                                 
 C       5.990666      -0.740530      -0.572922                                 
 H       5.474898      -2.812375      -0.399858                                 
 H       4.340524      -1.693212       0.405734                                 
 H       3.408429      -2.785773      -1.638295                                 
 H       3.430082      -1.001958      -1.715089                                 
 H       5.353042      -2.925139      -3.053801                                 
 H       4.145336      -1.873842      -3.844105                                 
 H       5.352596       0.103382      -3.182558                                 
 H       6.486969      -1.015794      -3.988159                                 
 H       7.397410      -1.707031      -1.867335                                 
 H       7.419063       0.076768      -1.944129                                 
 H       5.474450       0.216151      -0.528623                                 
 H       6.682156      -0.835146       0.261681                                 
 C      -1.962133      -2.978418      -3.994782                                 
 C      -1.063870      -3.492356      -2.867887                                 
 C       0.344715      -3.824859      -3.364252                                 
 C       0.320883      -4.780216      -4.559100                                 
 C      -0.577377      -4.266284      -5.685987                                 
 C      -1.985963      -3.933781      -5.189622                                 
 H      -1.584410      -2.014135      -4.328168                                 
 H      -2.975257      -2.874979      -3.612107                                 
 H      -0.990215      -2.722021      -2.103194                                 
 H      -1.508283      -4.394608      -2.453042                                 
 H       0.833609      -2.901365      -3.667194                                 
 H       0.896828      -4.295716      -2.553578                                 
 H      -0.056840      -5.744499      -4.225714                                 
 H       1.334009      -4.883660      -4.941767                                 
 H      -0.132961      -3.364032      -6.100846                                 
 H      -0.651032      -5.036619      -6.450680                                 
 H      -2.474857      -4.857274      -4.886680                                 
 H      -2.538075      -3.462924      -6.000296                                 
 C       4.700542       3.346759       4.837338                                 
 C       3.833063       2.672065       3.772821                                 
 C       4.569046       1.526035       3.075696                                 
 C       5.921838       1.970123       2.515552                                 
 C       6.789326       2.644823       3.580070                                 
 C       6.053334       3.790848       4.277194                                 
 H       4.874165       2.638319       5.644593                                 
 H       4.174381       4.222713       5.210701                                 
 H       2.942138       2.272322       4.252451                                 
 H       3.558851       3.414312       3.026123                                 
 H       4.736259       0.729871       3.798033                                 
 H       3.953494       1.166619       2.253738                                 
 H       5.748215       2.678564       1.708296                                 
 H       6.448008       1.094176       2.142190                                 
 H       7.063529       1.902570       4.326766                                 
 H       7.680250       3.044566       3.100440                                 
 H       5.886113       4.587022       3.554856                                 
 H       6.668887       4.150263       5.099152                                 
 C      -0.889133       7.388435      -1.961784                                 
 C      -1.151693       8.831867      -1.527782                                 
 C       0.140008       9.646866      -1.436582                                 
 C       1.187286       8.964536      -0.554170                                 
 C       1.449844       7.521103      -0.988158                                 
 C       0.158143       6.706104      -1.079358                                 
 H      -0.528483       7.394093      -2.988227                                 
 H      -1.819941       6.829574      -1.891985                                 
 H      -1.807752       9.300742      -2.258136                                 
 H      -1.625010       8.819802      -0.548233                                 
 H       0.550214       9.761418      -2.437713                                 
 H      -0.092612      10.620518      -1.010440                                 
 H       0.826629       8.958872       0.472271                                 
 H       2.118093       9.523396      -0.623956                                 
 H       1.923158       7.533174      -1.967715                                 
 H       2.105891       7.052229      -0.257814                                 
 H      -0.252067       6.591557      -0.078235                                 
 H       0.390762       5.732453      -1.505500                                 
                                                                                
      -5.275720       1.518344      -1.483012      -0.120000                    
      -5.758176       0.548548      -2.563599      -0.120000                    
      -4.638301       0.169280      -3.534694      -0.120000                    
      -3.956861       1.401417      -4.133379      -0.120000                    
      -3.474411       2.371219      -3.052787      -0.120000                    
      -4.594279       2.750482      -2.081697      -0.120000                    
      -4.561524       1.001329      -0.845614       0.060000                    
      -6.134424       1.844732      -0.900228       0.060000                    
      -6.121564      -0.356464      -2.081440       0.060000                    
      -6.559164       1.024446      -3.125440       0.060000                    
      -3.893448      -0.412770      -2.996155       0.060000                    
      -5.064625      -0.419829      -4.343983       0.060000                    
      -4.671056       1.918433      -4.770778       0.060000                    
      -3.098162       1.075035      -4.716157       0.060000                    
      -2.673424       1.895309      -2.490953       0.060000                    
      -3.111017       3.276226      -3.534952       0.060000                    
      -5.339133       3.332531      -2.620237       0.060000                    
      -4.167955       3.339592      -1.272410       0.060000                    
      -4.672864      -5.150737      -0.992046      -0.120000                    
      -4.223302      -6.134560       0.090028      -0.120000                    
      -4.714375      -5.722233       1.479234      -0.120000                    
      -4.329056      -4.281062       1.819116      -0.120000                    
      -4.778613      -3.297245       0.737035      -0.120000                    
      -4.287540      -3.709572      -0.652171      -0.120000                    
      -5.755204      -5.208220      -1.086284       0.060000                    
      -4.197203      -5.425536      -1.931120       0.060000                    
      -4.627192      -7.117247      -0.143985       0.060000                    
      -3.135875      -6.166335       0.100985       0.060000                    
      -5.798687      -5.807293       1.504099       0.060000                    
      -4.266869      -6.384935       2.216988       0.060000                    
      -3.246714      -4.223579       1.913340       0.060000                    
      -4.804712      -4.006269       2.758183       0.060000                    
      -5.866039      -3.265470       0.726078       0.060000                    
      -4.374723      -2.314558       0.971048       0.060000                    
      -3.203228      -3.624512      -0.677036       0.060000                    
      -4.735050      -3.046864      -1.389932       0.060000                    
       2.308012       1.361456      -4.011098      -0.120000                    
       2.291100       0.212349      -5.021133      -0.120000                    
       1.250266       0.431380      -6.121018      -0.120000                    
      -0.140311       0.710420      -5.547056      -0.120000                    
      -0.123402       1.859533      -4.537028      -0.120000                    
       0.917432       1.640501      -3.437143      -0.120000                    
       2.664003       2.259337      -4.511861       0.060000                    
       2.974719       1.095910      -3.193451       0.060000                    
       3.273911       0.140008      -5.481981       0.060000                    
       2.052200      -0.709514      -4.495037       0.060000                    
       1.555313       1.284377      -6.723463       0.060000                    
       1.199382      -0.465355      -6.735017       0.060000                    
      -0.496302      -0.187461      -5.046293       0.060000                    
      -0.807013       0.975978      -6.364709       0.060000                    
       0.115501       2.781390      -5.063118       0.060000                    
      -1.106211       1.931868      -4.076173       0.060000                    
       0.612388       0.787499      -2.834691       0.060000                    
       0.968322       2.537232      -2.823151       0.060000                    
      -4.981010       7.547905       2.473097      -0.120000                    
      -5.554695       7.329996       1.071565      -0.120000                    
      -4.977850       6.079832       0.404194      -0.120000                    
      -3.447822       6.084899       0.402782      -0.120000                    
      -2.874130       6.302815       1.804316      -0.120000                    
      -3.450979       7.552974       2.471672      -0.120000                    
      -5.325377       6.742846       3.118786       0.060000                    
      -5.331504       8.507563       2.846906       0.060000                    
      -6.633570       7.214984       1.151439       0.060000                    
      -5.311794       8.195021       0.458070       0.060000                    
      -5.322126       5.204019       0.950159       0.060000                    
      -5.326330       6.043416      -0.625852       0.060000                    
      -3.103455       6.889959      -0.242907       0.060000                    
      -3.097328       5.125242       0.028973       0.060000                    
      -3.117038       5.437783       2.417809       0.060000                    
      -1.795262       6.417820       1.724440       0.060000                    
      -3.106709       8.428790       1.925713       0.060000                    
      -3.102498       7.589401       3.501725       0.060000                    
      -0.964399       4.280927       5.793605      -0.120000                    
      -0.126470       4.826669       6.951596      -0.120000                    
       0.408586       6.230168       6.660176      -0.120000                    
       1.161028       6.291980       5.329374      -0.120000                    
       0.323099       5.746237       4.171383      -0.120000                    
      -0.211956       4.342739       4.462804      -0.120000                    
      -1.870412       4.877264       5.708751       0.060000                    
      -1.214051       3.243159       6.003955       0.060000                    
      -0.750303       4.870372       7.841787       0.060000                    
       0.717532       4.159753       7.114603       0.060000                    
      -0.431235       6.920436       6.617146       0.060000                    
       1.090539       6.514961       7.458678       0.060000                    
       2.067042       5.695642       5.414228       0.060000                    
       1.410687       7.329743       5.119018       0.060000                    
      -0.520899       6.413147       4.008384       0.060000                    
       0.946932       5.702535       3.281193       0.060000                    
       0.627865       3.652471       4.505834       0.060000                    
      -0.893904       4.057940       3.664295       0.060000                    
       1.752165      -0.322288       6.914682      -0.120000                    
       0.649933       0.453446       6.190677      -0.120000                    
      -0.150487      -0.439982       5.240899      -0.120000                    
       0.754372      -1.195206       4.265238      -0.120000                    
       1.856600      -1.970934       4.989236      -0.120000                    
       2.657018      -1.077507       5.939028      -0.120000                    
       1.287694      -1.041578       7.585918       0.060000                    
       2.360133       0.382060       7.478547       0.060000                    
      -0.028872       0.867669       6.933115       0.060000                    
       1.109374       1.252159       5.612211       0.060000                    
      -0.706686      -1.164921       5.831451       0.060000                    
      -0.833625       0.184570       4.669024       0.060000                    
       1.218834      -0.475905       3.594001       0.060000                    
       0.146395      -1.899543       3.701372       0.060000                    
       1.397162      -2.769653       5.567709       0.060000                    
       2.535403      -2.385157       4.246811       0.060000                    
       3.213216      -0.352568       5.348475       0.060000                    
       3.340158      -1.702058       6.510889       0.060000                    
       3.319115      -6.116935       1.491683      -0.120000                    
       4.127562      -4.835396       1.703892      -0.120000                    
       5.204915      -5.008420       2.776439      -0.120000                    
       4.627552      -5.545483       4.087630      -0.120000                    
       3.819105      -6.827023       3.875422      -0.120000                    
       2.741746      -6.653993       2.802881      -0.120000                    
       3.973188      -6.873863       1.064010       0.060000                    
       2.497139      -5.901051       0.812496       0.060000                    
       4.610299      -4.569526       0.765877       0.060000                    
       3.449405      -4.044259       2.016758       0.060000                    
       5.949885      -5.711875       2.410617       0.060000                    
       5.662548      -4.040318       2.968833       0.060000                    
       3.973479      -4.788555       4.515304       0.060000                    
       5.449522      -5.761363       4.766824       0.060000                    
       4.497261      -7.618159       3.562555       0.060000                    
       3.336368      -7.092891       4.813436       0.060000                    
       1.996774      -5.950549       3.168695       0.060000                    
       2.284119      -7.622100       2.610480       0.060000                    
       4.861800       8.399362       1.176439      -0.120000                    
       6.257401       8.689839       1.732131      -0.120000                    
       6.620028       7.755140       2.887923      -0.120000                    
       5.553816       7.759959       3.985253      -0.120000                    
       4.158206       7.469476       3.429561      -0.120000                    
       3.795579       8.404174       2.273767      -0.120000                    
       4.872101       7.418447       0.706029       0.060000                    
       4.612074       9.165703       0.445702       0.060000                    
       6.984478       8.554396       0.934265       0.060000                    
       6.280992       9.715594       2.094034       0.060000                    
       6.715096       6.743196       2.499939       0.060000                    
       7.563430       8.084405       3.318398       0.060000                    
       5.543506       8.740868       4.455662       0.060000                    
       5.803537       6.993623       4.715982       0.060000                    
       4.134620       6.443732       3.067651       0.060000                    
       3.431129       7.604918       4.227426       0.060000                    
       3.700516       9.416130       2.661746       0.060000                    
       2.852185       8.074916       1.843295       0.060000                    
      -1.162122      -9.724809      -1.734939      -0.120000                    
      -0.909826      -8.225384      -1.564801      -0.120000                    
       0.530365      -7.931090      -1.140219      -0.120000                    
       0.935008      -8.725077       0.103522      -0.120000                    
       0.682703     -10.224489      -0.066618      -0.120000                    
      -0.757480     -10.518794      -0.491198      -0.120000                    
      -0.578117     -10.081897      -2.580574       0.060000                    
      -2.223396      -9.880411      -1.916649       0.060000                    
      -1.100106      -7.730772      -2.514906       0.060000                    
      -1.582652      -7.844208      -0.799519       0.060000                    
       1.195896      -8.201703      -1.957191       0.060000                    
       0.617401      -6.869503      -0.918506       0.060000                    
       0.350994      -8.367976       0.949156       0.060000                    
       1.996279      -8.569467       0.285224       0.060000                    
       1.355535     -10.605671      -0.831906       0.060000                    
       0.872992     -10.719112       0.883489       0.060000                    
      -1.423014     -10.248175       0.325766       0.060000                    
      -0.844525     -11.580369      -0.712913       0.060000                    
       3.703634      -5.988560      -2.410028      -0.120000                    
       4.171250      -5.394213      -3.740048      -0.120000                    
       4.020194      -6.385741      -4.895500      -0.120000                    
       4.699170      -7.723611      -4.595356      -0.120000                    
       4.231559      -8.317963      -3.265342      -0.120000                    
       4.382603      -7.326436      -2.109885      -0.120000                    
       2.628467      -6.147655      -2.459140       0.060000                    
       3.945542      -5.289263      -1.612490       0.060000                    
       3.571136      -4.513158      -3.957315       0.060000                    
       5.220959      -5.122940      -3.649749       0.060000                    
       2.960329      -6.563941      -5.064430       0.060000                    
       4.476908      -5.955842      -5.784472       0.060000                    
       5.774337      -7.564515      -4.546244       0.060000                    
       4.457261      -8.422906      -5.392894       0.060000                    
       3.181847      -8.589230      -3.355649       0.060000                    
       4.831668      -9.199012      -3.048069       0.060000                    
       5.442480      -7.148234      -1.940960       0.060000                    
       3.925894      -7.756340      -1.220920       0.060000                    
       2.670040       7.948547      -6.341967      -0.120000                    
       2.371103       7.876514      -7.840740      -0.120000                    
       0.870753       7.771024      -8.121459      -0.120000                    
       0.223200       6.618034      -7.351854      -0.120000                    
       0.522138       6.690066      -5.853081      -0.120000                    
       2.022488       6.795557      -5.572362      -0.120000                    
       2.280303       8.887461      -5.954400       0.060000                    
       3.747528       7.899773      -6.199558       0.060000                    
       2.750891       8.779103      -8.314837       0.060000                    
       2.864328       6.998219      -8.251840       0.060000                    
       0.394325       8.701410      -7.819724       0.060000                    
       0.727428       7.601871      -9.186626       0.060000                    
       0.612932       5.679126      -7.739416       0.060000                    
      -0.854293       6.666813      -7.494256       0.060000                    
       0.028912       7.568363      -5.441982       0.060000                    
       0.142345       5.787483      -5.378979       0.060000                    
       2.498916       5.865171      -5.874098       0.060000                    
       2.165813       6.964710      -4.507195       0.060000                    
      -8.241658      -0.633862      -0.027228      -0.120000                    
      -9.000216      -1.774715       0.653866      -0.120000                    
     -10.137980      -2.307985      -0.219121      -0.120000                    
     -11.076498      -1.191975      -0.682439      -0.120000                    
     -10.317943      -0.051116      -1.363540      -0.120000                    
      -9.180177       0.482147      -0.490546      -0.120000                    
      -7.720315      -1.032329      -0.895049       0.060000                    
      -7.529825      -0.217350       0.682209       0.060000                    
      -8.303426      -2.586607       0.851007       0.060000                    
      -9.421559      -1.404331       1.586055       0.060000                    
      -9.708033      -2.787159      -1.096111       0.060000                    
     -10.712788      -3.027480       0.360248       0.060000                    
     -11.597842      -0.793508       0.185382       0.060000                    
     -11.788332      -1.608487      -1.391876       0.060000                    
      -9.896598      -0.421507      -2.295722       0.060000                    
     -11.014740       0.760762      -1.560677       0.060000                    
      -9.610133       0.961315       0.386442       0.060000                    
      -8.605378       1.201636      -1.069917       0.060000                    
       6.856731      10.022933      -2.140077      -0.120000                    
       8.153981       9.216056      -2.223920      -0.120000                    
       8.362017       8.608134      -3.612518      -0.120000                    
       7.149981       7.793621      -4.069232      -0.120000                    
       5.852731       8.600498      -3.985388      -0.120000                    
       5.644699       9.208421      -2.596804      -0.120000                    
       6.949222      10.897507      -2.780549       0.060000                    
       6.702245      10.326480      -1.106846       0.060000                    
       8.989596       9.877460      -2.005221       0.060000                    
       8.109846       8.409959      -1.494571       0.060000                    
       8.527087       9.414524      -4.323922       0.060000                    
       9.229033       7.951747      -3.578304       0.060000                    
       7.057487       6.919053      -3.428768       0.060000                    
       7.304467       7.490075      -5.102463       0.060000                    
       5.896866       9.406596      -4.714737       0.060000                    
       5.017116       7.939094      -4.204087       0.060000                    
       5.479625       8.402031      -1.885387       0.060000                    
       4.777680       9.864806      -2.631005       0.060000                    
       5.230824       2.663790      -6.365028      -0.120000                    
       4.030533       3.303972      -7.065230      -0.120000                    
       4.450678       4.129336      -8.283095      -0.120000                    