%nprocshared=4                                                                       
%mem=8GB                                                                             
#P pop=chelpg cam-b3lyp/gen scf=qc int=ultrafine charge td(nstates=10)               
                                                                                     
pNA CAM-B3LYP def2-TZVPD Single point - solvent def2-SV(P)                           
                                                                                     
0 1                                                                                  
 C       1.386341       0.000000       0.000000                                 
 C       0.000000       0.000000       0.000000                                 
 C      -0.712907       1.188984      -0.000000                                 
 C      -0.035635       2.384357       0.000131                                 
 C       1.365534       2.410943       0.000833                                 
 C       2.063239       1.195576       0.000133                                 
 H       1.918972      -0.938700       0.000854                                 
 H      -1.791888       1.163049       0.000837                                 
 H      -0.586620       3.315732      -0.002113                                 
 H       3.145392       1.202000      -0.002090                                 
 N      -0.713906      -1.260429       0.001744                                 
 O      -1.931758      -1.232720       0.002551                                 
 O      -0.063858      -2.290656       0.002518                                 
 N       2.037885       3.598040      -0.033161                                 
 H       1.540331       4.445798       0.174764                                 
 H       3.020819       3.607257       0.174736                                 
 C      -0.268353       4.988983       4.210248                                 
 C       0.937689       4.384755       3.488234                                 
 C       1.949750       5.453322       3.070087                                 
 C       1.297693       6.573860       2.257542                                 
 C       0.091651       7.178086       2.979557                                 
 C      -0.920410       6.109519       3.397704                                 
 H       0.065069       5.398190       5.161583                                 
 H      -1.004354       4.204726       4.373992                                 
 H       1.429407       3.683841       4.159432                                 
 H       0.586916       3.870097       2.596185                                 
 H       2.390113       5.884844       3.966492                                 
 H       2.718889       4.984000       2.460268                                 
 H       0.964271       6.164651       1.306207                                 
 H       2.033694       7.358116       2.093799                                 
 H       0.442424       7.692744       3.871605                                 
 H      -0.400067       7.879001       2.308358                                 
 H      -1.360773       5.677997       2.501299                                 
 H      -1.689549       6.578842       4.007523                                 
 C       6.129535      -2.154311       0.422092                                 
 C       7.038574      -3.254501       0.973597                                 
 C       6.441646      -4.648106       0.767298                                 
 C       5.018569      -4.749810       1.320027                                 
 C       4.109531      -3.649621       0.768521                                 
 C       4.706458      -2.256016       0.974820                                 
 H       6.089203      -2.247133      -0.661161                                 
 H       6.543309      -1.188090       0.702889                                 
 H       7.995173      -3.206172       0.457766                                 
 H       7.176176      -3.089641       2.040157                                 
 H       6.416409      -4.861129      -0.299304                                 
 H       7.067313      -5.374011       1.282337                                 
 H       5.058900      -4.656997       2.403284                                 
 H       4.604788      -5.716033       1.039222                                 
 H       3.971929      -3.814481      -0.298039                                 
 H       3.152924      -3.697952       1.284346                                 
 H       4.731695      -2.043001       2.041427                                 
 H       4.080784      -1.530112       0.459775                                 
 C       2.649980      -5.479725      -3.097770                                 
 C       3.691212      -4.717653      -3.919967                                 
 C       3.963184      -3.323946      -3.350211                                 
 C       2.675532      -2.518017      -3.167437                                 
 C       1.634294      -3.280083      -2.345252                                 
 C       1.362329      -4.673788      -2.915001                                 
 H       3.069337      -5.692213      -2.116622                                 
 H       2.409633      -6.406569      -3.614213                                 
 H       4.620654      -5.283121      -3.914076                                 
 H       3.320780      -4.611113      -4.937362                                 
 H       4.445853      -3.432561      -2.381282                                 
 H       4.613977      -2.788164      -4.038010                                 
 H       2.256162      -2.305520      -4.148591                                 
 H       2.915866      -1.591164      -2.651000                                 
 H       2.004726      -3.386617      -1.327844                                 
 H       0.704845      -2.714611      -2.351136                                 
 H       0.879652      -4.565185      -3.883931                                 
 H       0.711528      -5.209574      -2.227191                                 
 C      -4.418088       5.703333      -0.942008                                 
 C      -4.417038       4.581605       0.098480                                 
 C      -4.035273       3.232373      -0.513790                                 
 C      -4.901312       2.887809      -1.727138                                 
 C      -4.902355       4.009533      -2.767633                                 
 C      -5.284113       5.358767      -2.155356                                 
 H      -3.396490       5.865962      -1.278995                                 
 H      -4.811096       6.606213      -0.479507                                 
 H      -3.695460       4.827868       0.874540                                 
 H      -5.415304       4.500548       0.523390                                 
 H      -2.995230       3.275914      -0.830067                                 
 H      -4.168518       2.458652       0.239435                                 
 H      -5.922903       2.725176      -1.390158                                 
 H      -4.508304       1.984929      -2.189639                                 
 H      -3.904089       4.090590      -3.192543                                 
 H      -5.623934       3.763267      -3.543676                                 
 H      -6.324162       5.315230      -1.839073                                 
 H      -5.150882       6.132490      -2.908582                                 
 C      -0.021102       1.551398      -4.641819                                 
 C       0.683997       0.194450      -4.691204                                 
 C      -0.307305      -0.961361      -4.841018                                 
 C      -1.399963      -0.921907      -3.770727                                 
 C      -2.105062       0.435041      -3.721341                                 
 C      -1.113752       1.590854      -3.571521                                 
 H      -0.476919       1.741885      -5.611154                                 
 H       0.716250       2.318304      -4.414325                                 
 H       1.360455       0.184920      -5.543189                                 
 H       1.240175       0.057733      -3.766198                                 
 H      -0.776851      -0.892010      -5.819961                                 
 H       0.235994      -1.899477      -4.748724                                 
 H      -0.944138      -1.112391      -2.801385                                 
 H      -2.137315      -1.688813      -3.998220                                 
 H      -2.661226       0.571756      -4.646347                                 
 H      -2.781513       0.444566      -2.869363                                 
 H      -0.644214       1.521500      -2.592585                                 
 H      -1.657053       2.528962      -3.663810                                 
 C       8.573711       3.414472       1.816002                                 
 C       7.062549       3.205211       1.932028                                 
 C       6.575512       2.047547       1.058169                                 
 C       7.022909       2.200086      -0.397040                                 
 C       8.534073       2.409347      -0.513065                                 
 C       9.021109       3.567003       0.360799                                 
 H       9.078226       2.551900       2.246215                                 
 H       8.842274       4.318242       2.358823                                 
 H       6.820872       2.983371       2.969350                                 
 H       6.559932       4.116197       1.613985                                 
 H       6.983695       1.119116       1.451908                                 
 H       5.488136       2.023813       1.086914                                 
 H       6.518402       3.062655      -0.827258                                 
 H       6.754348       1.296317      -0.939860                                 
 H       9.036688       1.498352      -0.195018                                 
 H       8.775747       2.631178      -1.550383                                 
 H       8.612926       4.495442      -0.032945                                 
 H      10.108485       3.590737       0.332054                                 
                                                                                
      -1.397785      -3.374763       5.204687      -0.120000                    
       0.114706      -3.518062       5.023604      -0.120000                    
       0.797840      -2.164760       4.816308      -0.120000                    
       0.157354      -1.367592       3.678200      -0.120000                    
      -1.355137      -1.224293       3.859283      -0.120000                    
      -2.038270      -2.577585       4.066574      -0.120000                    
      -1.588163      -2.856538       6.142180       0.060000                    
      -1.841106      -4.368046       5.225836       0.060000                    
       0.529078      -3.983732       5.915256       0.060000                    
       0.303010      -4.139858       4.150899       0.060000                    
       0.713320      -1.588281       5.735088       0.060000                    
       1.844394      -2.337167       4.573955       0.060000                    
       0.347731      -1.885817       2.740706       0.060000                    
       0.600676      -0.374300       3.657047       0.060000                    
      -1.543449      -0.602499       4.731981       0.060000                    
      -1.769510      -0.758623       2.967630       0.060000                    
      -1.953750      -3.154066       3.147794       0.060000                    
      -3.084825      -2.405189       4.308932       0.060000                    
      -7.994304      -1.527843       0.824079      -0.120000                    
      -8.273421      -2.775617       1.664373      -0.120000                    
      -7.267394      -2.934457       2.806161      -0.120000                    
      -5.821803      -2.891472       2.306693      -0.120000                    
      -5.542678      -1.643702       1.466393      -0.120000                    
      -6.548706      -1.484862       0.324604      -0.120000                    
      -8.176575      -0.647813       1.437223       0.060000                    
      -8.659523      -1.532378      -0.036713       0.060000                    
      -9.271438      -2.692467       2.089412       0.060000                    
      -8.209215      -3.650070       1.020287       0.060000                    
      -7.414682      -2.122246       3.514855       0.060000                    
      -7.439554      -3.893477       3.290269       0.060000                    
      -5.639524      -3.771507       1.693543       0.060000                    
      -5.156583      -2.886937       3.167485       0.060000                    
      -5.606891      -0.769245       2.110486       0.060000                    
      -4.544676      -1.726850       1.041353       0.060000                    
      -6.401418      -2.297074      -0.384089       0.060000                    
      -6.376545      -0.525842      -0.159503       0.060000                    
      -3.310902      -5.794997      -4.191399      -0.120000                    
      -2.200442      -6.433538      -3.354803      -0.120000                    
      -2.326253      -6.081605      -1.871121      -0.120000                    
      -2.416873      -4.570949      -1.645957      -0.120000                    
      -3.527340      -3.932402      -2.482548      -0.120000                    
      -3.401520      -4.284331      -3.966240      -0.120000                    
      -4.260511      -6.245871      -3.910972       0.060000                    
      -3.102506      -5.977781      -5.243435       0.060000                    
      -2.262007      -7.514448      -3.462134       0.060000                    
      -1.240409      -6.072385      -3.717563       0.060000                    
      -3.228348      -6.546339      -1.478858       0.060000                    
      -1.449641      -6.458983      -1.348764       0.060000                    
      -1.467271      -4.120070      -1.926379       0.060000                    
      -2.625277      -4.388160      -0.593915       0.060000                    
      -4.487367      -4.293560      -2.119793       0.060000                    
      -3.465774      -2.851494      -2.375216       0.060000                    
      -2.499433      -3.819602      -4.358493       0.060000                    
      -4.278134      -3.906961      -4.488593       0.060000                    
       5.089209       1.631898      -3.526580      -0.120000                    
       6.239456       2.484964      -4.065131      -0.120000                    
       5.873686       3.969500      -4.122983      -0.120000                    
       4.573027       4.209915      -4.892041      -0.120000                    
       3.422780       3.356848      -4.353489      -0.120000                    
       3.788550       1.872313      -4.295638      -0.120000                    
       4.927205       1.886603      -2.481324       0.060000                    
       5.360405       0.582640      -3.621603       0.060000                    
       7.098819       2.363985      -3.409078       0.060000                    
       6.481744       2.147176      -5.070548       0.060000                    
       5.749546       4.336859      -3.106493       0.060000                    
       6.677287       4.506325      -4.622704       0.060000                    
       4.735031       3.955209      -5.937296       0.060000                    
       4.301830       5.259173      -4.797018       0.060000                    
       3.180492       3.694636      -3.348073       0.060000                    
       2.563418       3.477836      -5.009547       0.060000                    
       3.912690       1.504953      -5.312128       0.060000                    
       2.984949       1.335487      -3.795917       0.060000                    
       4.707222       1.978347       5.509362      -0.120000                    
       6.065039       1.574792       6.087594      -0.120000                    
       6.851722       0.677225       5.130260      -0.120000                    
       6.035872      -0.537103       4.682133      -0.120000                    
       4.678055      -0.133548       4.103902      -0.120000                    
       3.891372       0.764019       5.061236      -0.120000                    
       4.873469       2.622435       4.648425       0.060000                    
       4.147070       2.509930       6.275720       0.060000                    
       6.644981       2.476010       6.274805       0.060000                    
       5.900195       1.032458       7.016231       0.060000                    
       7.121355       1.258596       4.251076       0.060000                    
       7.746785       0.325973       5.639446       0.060000                    
       5.869624      -1.181191       5.543071       0.060000                    
       6.596023      -1.068686       3.915776       0.060000                    
       4.842899       0.408786       3.175265       0.060000                    
       4.098113      -1.034766       3.916691       0.060000                    
       3.621738       0.182648       5.940420       0.060000                    
       2.996309       1.115271       4.552050       0.060000                    
      -5.709936       1.754082       3.543699      -0.120000                    
      -5.115950       0.658367       4.431124      -0.120000                    
      -4.823500       1.162437       5.845847      -0.120000                    
      -3.958750       2.424651       5.837400      -0.120000                    
      -4.552743       3.520370       4.949981      -0.120000                    
      -4.845193       3.016300       3.535258      -0.120000                    
      -6.696864       2.011349       3.922474       0.060000                    
      -5.783010       1.375935       2.526251       0.060000                    
      -5.827928      -0.161756       4.494520       0.060000                    
      -4.184754       0.316049       3.984624       0.060000                    
      -5.767707       1.391151       6.335559       0.060000                    
      -4.295161       0.382696       6.390405       0.060000                    
      -2.971829       2.167389       5.458631       0.060000                    
      -3.885676       2.802799       6.854848       0.060000                    
      -5.483940       3.862689       5.396482       0.060000                    
      -3.840758       4.340489       4.886579       0.060000                    
      -3.900980       2.787583       3.045540       0.060000                    
      -5.373526       3.796037       2.990694       0.060000                    
       2.449470       9.942382      -2.213116      -0.120000                    
       3.479505       8.913517      -1.742674      -0.120000                    
       4.352990       8.409656      -2.893406      -0.120000                    
       3.515627       7.888719      -4.063190      -0.120000                    
       2.485592       8.917584      -4.533633      -0.120000                    
       1.612107       9.421447      -3.382900      -0.120000                    
       2.975296      10.839105      -2.534127       0.060000                    
       1.783568      10.171892      -1.383934       0.060000                    
       4.120881       9.379273      -0.997501       0.060000                    
       2.951932       8.066170      -1.309910       0.060000                    
       4.970572       9.232471      -3.247178       0.060000                    
       4.978776       7.599127      -2.525720       0.060000                    
       2.989801       6.991997      -3.742180       0.060000                    
       4.181530       7.659219      -4.892378       0.060000                    
       3.013158       9.764930      -4.966404       0.060000                    
       1.844209       8.451832      -5.278800       0.060000                    
       0.994518       8.598628      -3.029136       0.060000                    
       0.986321      10.231976      -3.750587       0.060000                    
      -0.287348       6.585550      -4.529823      -0.120000                    
       0.629148       5.720700      -5.397574      -0.120000                    
       0.438543       6.001714      -6.889459      -0.120000                    
      -1.027418       5.885914      -7.311960      -0.120000                    
      -1.943908       6.750758      -6.444198      -0.120000                    
      -1.753310       6.469750      -4.952323      -0.120000                    
       0.021239       7.624360      -4.626219       0.060000                    
      -0.196711       6.259359      -3.495943       0.060000                    
       1.662402       5.934765      -5.132717       0.060000                    
       0.400373       4.673888      -5.209002       0.060000                    
       0.782169       7.012351      -7.099547       0.060000                    
       1.021882       5.279319      -7.456594       0.060000                    
      -1.336007       4.847095      -7.215559       0.060000                    
      -1.118049       6.212101      -8.345846       0.060000                    
      -1.715140       7.797567      -6.632776       0.060000                    
      -2.977170       6.536691      -6.709062       0.060000                    
      -2.096929       5.459100      -4.742237       0.060000                    
      -2.336648       7.192146      -4.385188       0.060000                    
       8.091109       6.787829      -3.308520      -0.120000                    
       7.921472       6.788527      -1.787970      -0.120000                    
       7.816423       8.206815      -1.223671      -0.120000                    
       8.983527       9.089536      -1.670523      -0.120000                    
       9.153158       9.088836      -3.191079      -0.120000                    
       9.258214       7.670544      -3.755384      -0.120000                    
       7.176477       7.165687      -3.760590       0.060000                    
       8.280909       5.768108      -3.636721       0.060000                    
       7.011141       6.247159      -1.539407       0.060000                    
       8.784921       6.299834      -1.341549       0.060000                    
       6.888537       8.653043      -1.575221       0.060000                    
       7.819772       8.149808      -0.137191       0.060000                    
       9.898167       8.711676      -1.218458       0.060000                    
       8.793735      10.109255      -1.342328       0.060000                    
       8.289716       9.577525      -3.637506       0.060000                    
      10.063503       9.630202      -3.439641       0.060000                    
      10.186092       7.224319      -3.403827       0.060000                    
       9.254856       7.727546      -4.841854       0.060000                    
      -7.444737       7.506032       2.926955      -0.120000                    
      -6.431424       6.569105       2.266458      -0.120000                    
      -4.992117       6.920912       2.648044      -0.120000                    
      -4.671340       8.392712       2.379962      -0.120000                    
      -5.684653       9.329638       3.040459      -0.120000                    
      -7.123960       8.977831       2.658872      -0.120000                    
      -7.426277       7.336311       4.001462       0.060000                    
      -8.432644       7.287103       2.527312       0.060000                    
      -6.637621       5.550797       2.589125       0.060000                    
      -6.534667       6.650974       1.186506       0.060000                    
      -4.855427       6.722972       3.709074       0.060000                    
      -4.315829       6.304871       2.059110       0.060000                    
      -4.689799       8.562431       1.305454       0.060000                    
      -3.683434       8.611630       2.779609       0.060000                    
      -5.581417       9.247763       4.120421       0.060000                    
      -5.478456      10.347937       2.717797       0.060000                    
      -7.260656       9.175774       1.597849       0.060000                    
      -7.800247       9.593871       3.247805       0.060000                    
      -2.735383       9.715313      -1.451945      -0.120000                    
      -1.876757       9.352424      -0.238718      -0.120000                    
      -1.668319      10.547310       0.693920      -0.120000                    
      -1.121911      11.767196      -0.050602      -0.120000                    
      -1.980544      12.130094      -1.263841      -0.120000                    
      -2.188981      10.935205      -2.196479      -0.120000                    
      -3.743518       9.939615      -1.109854       0.060000                    
      -2.748237       8.868380      -2.134655       0.060000                    
      -2.375988       8.561108       0.316381       0.060000                    
      -0.904972       9.011821      -0.589848       0.060000                    
      -2.624988      10.811660       1.139440       0.060000                    
      -0.957161      10.264751       1.467312       0.060000                    
      -0.113783      11.542892      -0.392701       0.060000                    
      -1.109064      12.614128       0.632100       0.060000                    
      -2.952329      12.470686      -0.912705       0.060000                    
      -1.481306      12.921402      -1.818929       0.060000                    
      -1.232306      10.670850      -2.641988       0.060000                    
      -2.900140      11.217757      -2.969867       0.060000                    
       2.915799      -8.945692       0.993835      -0.120000                    
       2.746815      -9.159654       2.499342      -0.120000                    
       1.386608      -9.770567       2.842263      -0.120000                    
       0.230050      -8.966993       2.244242      -0.120000                    
       0.399041      -8.753030       0.738742      -0.120000                    
       1.759243      -8.142109       0.395810      -0.120000                    
       2.952379      -9.917661       0.506466       0.060000                    
       3.842360      -8.402143       0.821728       0.060000                    
       3.527722      -9.833905       2.844530       0.060000                    
       2.831459      -8.196938       2.999029       0.060000                    
       1.349542     -10.782312       2.443996       0.060000                    
       1.275679      -9.786761       3.924459       0.060000                    
       0.193478      -7.995013       2.731613       0.060000                    
      -0.696502      -9.510530       2.416351       0.060000                    
       0.314398      -9.715745       0.239054       0.060000                    
      -0.381865      -8.078777       0.393553       0.060000                    
       1.796315      -7.130369       0.794088       0.060000                    
       1.870171      -8.125915      -0.686386       0.060000                    
      -4.909343      -8.668760       2.107959      -0.120000                    
      -5.717584      -7.977598       3.207918      -0.120000                    
      -5.454874      -6.470911       3.251411      -0.120000                    
      -3.961769      -6.151939       3.350988      -0.120000                    
      -3.153520      -6.843100       2.251036      -0.120000                    
      -3.416230      -8.349787       2.207542      -0.120000                    
      -5.274120      -8.327074       1.141585       0.060000                    
      -5.042116      -9.744381       2.202634       0.060000                    
      -6.776019      -8.140551       3.016202       0.060000                    
      -5.437372      -8.407203       4.167389       0.060000                    
      -5.845990      -6.023353       2.340213       0.060000                    
      -5.957962      -6.055292       4.122001       0.060000                    
      -3.596984      -6.493624       4.317369       0.060000                    
      -3.828988      -5.076317       3.256319       0.060000                    
      -3.433733      -6.413494       1.291564       0.060000                    
      -2.095093      -6.680150       2.442745       0.060000                    
      -3.025114      -8.797343       3.118740       0.060000                    
      -2.913142      -8.765406       1.336952       0.060000                    
       8.914586      -3.788432      -3.097637      -0.120000                    
      10.193219      -3.029770      -3.458796      -0.120000                    
      10.095567      -1.543294      -3.109699      -0.120000                    