%nprocshared=4                                                                       
%mem=8GB                                                                             
#P pop=chelpg cam-b3lyp/gen scf=qc int=ultrafine charge td(nstates=10)               
                                                                                     
pNA CAM-B3LYP def2-TZVPD Single point - solvent def2-SV(P)                           
                                                                                     
0 1                                                                                  
 C       1.386341       0.000000       0.000000                                 
 C       0.000000       0.000000       0.000000                                 
 C      -0.712907       1.188984      -0.000000                                 
 C      -0.035635       2.384357       0.000131                                 
 C       1.365534       2.410943       0.000833                                 
 C       2.063239       1.195576       0.000133                                 
 H       1.918972      -0.938700       0.000854                                 
 H      -1.791888       1.163049       0.000837                                 
 H      -0.586620       3.315732      -0.002113                                 
 H       3.145392       1.202000      -0.002090                                 
 N      -0.713906      -1.260429       0.001744                                 
 O      -1.931758      -1.232720       0.002551                                 
 O      -0.063858      -2.290656       0.002518                                 
 N       2.037885       3.598040      -0.033161                                 
 H       1.540331       4.445798       0.174764                                 
 H       3.020819       3.607257       0.174736                                 
 C       5.528917       3.339257      -0.445470                                 
 C       5.496240       4.239749       0.791042                                 
 C       5.288529       5.710422       0.423611                                 
 C       6.308502       6.192730      -0.609832                                 
 C       6.341187       5.292235      -1.846332                                 
 C       6.548890       3.821569      -1.478904                                 
 H       4.542110       3.341715      -0.903578                                 
 H       5.798270       2.331977      -0.135011                                 
 H       4.675764       3.922044       1.430951                                 
 H       6.443908       4.143218       1.316610                                 
 H       4.290138       5.827155       0.007446                                 
 H       5.394748       6.312014       1.323916                                 
 H       7.295307       6.190270      -0.151723                                 
 H       6.039148       7.200009      -0.920291                                 
 H       5.393509       5.388768      -2.371911                                 
 H       7.161662       5.609935      -2.486250                                 
 H       7.547287       3.704825      -1.062745                                 
 H       6.442677       3.219966      -2.379216                                 
 C       4.962736      -1.980057      -2.223725                                 
 C       5.273646      -0.759631      -1.354997                                 
 C       6.496530      -0.986953      -0.463979                                 
 C       6.370397      -2.265155       0.367458                                 
 C       6.059487      -3.485582      -0.501270                                 
 C       4.836611      -3.258260      -1.392277                                 
 H       5.769749      -2.110529      -2.941628                                 
 H       4.021473      -1.807728      -2.741319                                 
 H       5.470840       0.089475      -2.005977                                 
 H       4.413800      -0.556644      -0.720067                                 
 H       7.377447      -1.069500      -1.097061                                 
 H       6.595951      -0.140629       0.212449                                 
 H       5.563392      -2.134689       1.085363                                 
 H       7.311675      -2.437479       0.885059                                 
 H       6.919340      -3.688561      -1.136204                                 
 H       5.862294      -4.334682       0.149718                                 
 H       3.955695      -3.175713      -0.759195                                 
 H       4.737190      -4.104584      -2.068705                                 
 C      -5.132064      -0.116785      -0.248480                                 
 C      -4.835941       0.580391      -1.577829                                 
 C      -6.115317       0.909581      -2.349767                                 
 C      -7.006443      -0.320480      -2.533731                                 
 C      -7.302578      -1.017651      -1.204371                                 
 C      -6.023202      -1.346842      -0.432433                                 
 H      -5.641273       0.586491       0.407109                                 
 H      -4.190551      -0.432881       0.195703                                 
 H      -4.304913       1.507601      -1.373421                                 
 H      -4.222211      -0.079519      -2.187349                                 
 H      -6.671858       1.662355      -1.795489                                 
 H      -5.840865       1.289972      -3.331439                                 
 H      -6.497239      -1.023758      -3.189307                                 
 H      -7.947968      -0.004379      -2.977903                                 
 H      -7.916309      -0.357746      -0.594861                                 
 H      -7.833607      -1.944867      -1.408788                                 
 H      -5.466662      -2.099616      -0.986711                                 
 H      -6.297648      -1.727226       0.549234                                 
 C       2.053727      -4.720882       2.171056                                 
 C       1.705673      -5.326340       3.532367                                 
 C       0.732338      -4.446167       4.319074                                 
 C       1.234093      -3.006135       4.443692                                 
 C       1.582146      -2.400683       3.082372                                 
 C       2.555487      -3.280849       2.295661                                 
 H       1.160492      -4.725282       1.549920                                 
 H       2.835267      -5.322887       1.712341                                 
 H       1.244065      -6.298493       3.372764                                 
 H       2.621609      -5.433722       4.109586                                 
 H      -0.224574      -4.437366       3.801497                                 
 H       0.617251      -4.861875       5.317904                                 
 H       2.127333      -3.001734       5.064815                                 
 H       0.452558      -2.404130       4.902394                                 
 H       0.666216      -2.293294       2.505149                                 
 H       2.043754      -1.428530       3.241975                                 
 H       3.512393      -3.289657       2.813242                                 
 H       2.670566      -2.865135       1.296829                                 
 C       1.476994       8.882647      -0.226037                                 
 C       0.763246       8.755577       1.121310                                 
 C       0.186312       7.354596       1.334338                                 
 C      -0.705521       6.918683       0.170022                                 
 C       0.008240       7.045753      -1.177327                                 
 C       0.585175       8.446734      -1.390355                                 
 H       2.362776       8.251093      -0.211220                                 
 H       1.757913       9.923212      -0.373933                                 
 H       1.478791       8.961245       1.914569                                 
 H      -0.051766       9.475613       1.152304                                 
 H       1.009887       6.649436       1.424432                                 
 H      -0.408485       7.358409       2.245337                                 
 H      -1.591289       7.550238       0.155203                                 
 H      -0.986431       5.878116       0.317929                                 
 H       0.823254       6.325722      -1.208312                                 
 H      -0.707312       6.840092      -1.970588                                 
 H      -0.238399       9.151899      -1.480440                                 
 H       1.179972       8.442921      -2.301353                                 
 C      -4.288881      -5.859752      -0.396291                                 
 C      -2.987561      -6.516611      -0.861061                                 
 C      -1.924020      -6.522733       0.238875                                 
 C      -1.686755      -5.125210       0.814714                                 
 C      -2.988068      -4.468356       1.279487                                 
 C      -4.051622      -4.462234       0.179552                                 
 H      -4.736321      -6.482433       0.375552                                 
 H      -4.959485      -5.775244      -1.248761                                 
 H      -3.199496      -7.545114      -1.145496                                 
 H      -2.602782      -5.960959      -1.713615                                 
 H      -2.257462      -7.177392       1.041273                                 
 H      -0.990017      -6.888182      -0.182742                                 
 H      -1.239313      -4.502523       0.042880                                 
 H      -1.016158      -5.209723       1.667188                                 
 H      -3.372846      -5.024008       2.132041                                 
 H      -2.776146      -3.439854       1.563923                                 
 H      -3.718181      -3.807576      -0.622846                                 
 H      -4.985619      -4.096779       0.601165                                 
                                                                                
       2.362329       1.814697       6.065968      -0.120000                    
       3.829169       1.567297       5.708092      -0.120000                    
       4.225311       2.260199       4.402719      -0.120000                    
       3.285276       1.895571       3.251908      -0.120000                    
       1.818433       2.142978       3.609768      -0.120000                    
       1.422286       1.450074       4.915155      -0.120000                    
       2.234317       2.869807       6.298429       0.060000                    
       2.107459       1.204387       6.929735       0.060000                    
       4.453021       1.954939       6.510653       0.060000                    
       3.983362       0.496384       5.593915       0.060000                    
       4.187144       3.336735       4.555047       0.060000                    
       5.234660       1.952105       4.138041       0.060000                    
       3.413293       0.840462       3.019434       0.060000                    
       3.540143       2.505888       2.388125       0.060000                    
       1.664234       3.213885       3.723949       0.060000                    
       1.194583       1.755341       2.807217       0.060000                    
       1.460452       0.373534       4.762818       0.060000                    
       0.412945       1.758162       5.179834       0.060000                    
       0.084864      -1.792072      -3.615331      -0.120000                    
      -1.422176      -2.037209      -3.517186      -0.120000                    
      -1.744340      -3.488101      -3.153689      -0.120000                    
      -1.062570      -4.480580      -4.097721      -0.120000                    
       0.444477      -4.235435      -4.195870      -0.120000                    
       0.766634      -2.784550      -4.559363      -0.120000                    
       0.519980      -1.900132      -2.624067       0.060000                    
       0.249495      -0.784793      -3.991961       0.060000                    
      -1.830786      -1.386832      -2.746713       0.060000                    
      -1.874636      -1.811482      -4.480528       0.060000                    
      -1.397404      -3.677834      -2.140143       0.060000                    
      -2.820962      -3.631501      -3.217023       0.060000                    
      -1.497686      -4.372519      -5.088985       0.060000                    
      -1.227193      -5.487864      -3.721088       0.060000                    
       0.896935      -4.461167      -3.232537       0.060000                    
       0.853086      -4.885813      -4.966343       0.060000                    
       0.419698      -2.594818      -5.572909       0.060000                    
       1.843262      -2.641144      -4.496033       0.060000                    
      -6.444570       5.150418       0.889441      -0.120000                    
      -5.721814       3.801978       0.873780      -0.120000                    
      -4.306567       3.916900       0.303797      -0.120000                    
      -4.294837       4.589396      -1.070500      -0.120000                    
      -5.017599       5.937828      -1.054834      -0.120000                    
      -6.432839       5.822913      -0.484855      -0.120000                    
      -5.944845       5.804518       1.600835       0.060000                    
      -7.477970       4.987564       1.187975       0.060000                    
      -5.656527       3.430608       1.894287       0.060000                    
      -6.290257       3.109941       0.256020       0.060000                    
      -3.703810       4.511505       0.986997       0.060000                    
      -3.889266       2.916945       0.205090       0.060000                    
      -4.794569       3.935289      -1.781889       0.060000                    
      -3.261445       4.752254      -1.369035       0.060000                    
      -4.449150       6.629872      -0.437078       0.060000                    
      -5.082886       6.309198      -2.075341       0.060000                    
      -7.035598       5.228309      -1.168056       0.060000                    
      -6.850147       6.822861      -0.386144       0.060000                    
      -3.312496      -1.847269       4.958260      -0.120000                    
      -4.111741      -1.168834       3.843904      -0.120000                    
      -3.390923       0.061457       3.289097      -0.120000                    
      -3.000936       1.044524       4.394735      -0.120000                    
      -2.201699       0.366096       5.509089      -0.120000                    
      -2.922507      -0.864196       6.063907      -0.120000                    
      -2.404610      -2.266214       4.529428       0.060000                    
      -3.922905      -2.635662       5.393451       0.060000                    
      -4.254912      -1.882063       3.034993       0.060000                    
      -5.073131      -0.856495       4.246195       0.060000                    
      -2.486871      -0.265498       2.779788       0.060000                    
      -4.054651       0.568150       2.591658       0.060000                    
      -3.908829       1.463475       4.823564       0.060000                    
      -2.390526       1.832917       3.959544       0.060000                    
      -1.240308       0.053761       5.106806       0.060000                    
      -2.058526       1.079329       6.318009       0.060000                    
      -3.826561      -0.537230       6.573209       0.060000                    
      -2.258780      -1.370889       6.761346       0.060000                    
       2.935844       6.584301      -4.526639      -0.120000                    
       2.840021       6.043684      -5.954737      -0.120000                    
       1.597580       5.173701      -6.156021      -0.120000                    
       1.503953       4.057883      -5.113333      -0.120000                    
       1.599763       4.598502      -3.685223      -0.120000                    
       2.842211       5.468475      -3.483946      -0.120000                    
       2.117335       7.282218      -4.363414       0.060000                    
       3.891945       7.090024      -4.409727       0.060000                    
       2.790340       6.885171      -6.642455       0.060000                    
       3.722884       5.441412      -6.158475       0.060000                    
       0.714612       5.803638      -6.071363       0.060000                    
       1.645722       4.722383      -7.144804       0.060000                    
       2.322462       3.359965      -5.276557       0.060000                    
       0.547853       3.552164      -5.230235       0.060000                    
       0.716914       5.200776      -3.481487       0.060000                    
       1.649451       3.757005      -2.997512       0.060000                    
       3.725180       4.838543      -3.568595       0.060000                    
       2.794070       5.919798      -2.495154       0.060000                    
      -3.345308       4.464928      -4.544654      -0.120000                    
      -2.262539       3.476117      -4.107913      -0.120000                    
      -2.050033       2.366374      -5.139560      -0.120000                    
      -3.358810       1.660684      -5.500308      -0.120000                    
      -4.441573       2.649502      -5.937054      -0.120000                    
      -4.654086       3.759239      -4.905403      -0.120000                    
      -2.989731       5.006147      -5.418942       0.060000                    
      -3.536724       5.155067      -3.725718       0.060000                    
      -1.327372       4.017672      -3.982192       0.060000                    
      -2.565314       3.022351      -3.166564       0.060000                    
      -1.631981       2.806438      -6.042462       0.060000                    
      -1.362441       1.632599      -4.724190       0.060000                    
      -3.714381       1.119472      -4.626025       0.060000                    
      -3.167388       0.970552      -6.319248       0.060000                    
      -4.138805       3.103262      -6.878398       0.060000                    
      -5.376747       2.107941      -6.062770       0.060000                    
      -5.072131       3.319181      -4.002504       0.060000                    
      -5.341672       4.493021      -5.320776       0.060000                    
      -3.556393       6.802056       5.560068      -0.120000                    
      -3.320051       7.015062       4.063519      -0.120000                    
      -3.102438       5.693456       3.323906      -0.120000                    
      -1.996129       4.853149       3.964939      -0.120000                    
      -2.232479       4.640144       5.461477      -0.120000                    
      -2.450092       5.961755       6.201098      -0.120000                    
      -4.505344       6.286612       5.692318       0.060000                    
      -3.583114       7.773300       6.049542       0.060000                    
      -4.191532       7.510551       3.640925       0.060000                    
      -2.434889       7.634608       3.936026       0.060000                    
      -4.029487       5.124619       3.348353       0.060000                    
      -2.821181       5.912570       2.295965       0.060000                    
      -1.047186       5.368598       3.832686       0.060000                    
      -1.969416       3.881911       3.475463       0.060000                    
      -3.117642       4.020598       5.588969       0.060000                    
      -1.360998       4.144660       5.884079       0.060000                    
      -1.523035       6.530587       6.176654       0.060000                    
      -2.731350       5.742637       7.229031       0.060000                    
       5.110372       7.857170       4.316350      -0.120000                    
       4.995088       7.859655       5.841998      -0.120000                    
       4.172023       6.676902       6.356472      -0.120000                    
       2.803000       6.593029       5.678429      -0.120000                    
       2.918285       6.590549       4.152790      -0.120000                    
       3.741350       7.773302       3.638316      -0.120000                    
       5.701586       6.995432       4.013751       0.060000                    
       5.597689       8.777961       4.002997       0.060000                    
       5.994945       7.798162       6.266334       0.060000                    
       4.509467       8.782376       6.152502       0.060000                    
       4.718025       5.758323       6.152214       0.060000                    
       4.022773       6.796914       7.427457       0.060000                    
       2.211795       7.454765       5.981038       0.060000                    
       2.315685       5.672243       5.991790       0.060000                    
       3.403914       5.667821       3.842287       0.060000                    
       1.918428       6.652041       3.728453       0.060000                    
       3.195355       8.691870       3.842567       0.060000                    
       3.890599       7.653284       2.567322       0.060000                    
       2.198066      -9.353520      -0.883720      -0.120000                    
       2.003049      -8.030425      -0.140563      -0.120000                    
       2.063750      -6.828228      -1.085045      -0.120000                    
       3.338522      -6.827765      -1.931203      -0.120000                    
       3.533547      -8.150867      -2.674358      -0.120000                    
       3.472839      -9.353058      -1.729878      -0.120000                    
       1.345145      -9.512610      -1.540118       0.060000                    
       2.266431     -10.156180      -0.152554       0.060000                    
       1.028654      -8.043688       0.343127       0.060000                    
       2.791640      -7.929266       0.602101       0.060000                    
       1.204360      -6.865622      -1.751099       0.060000                    
       2.040926      -5.917430      -0.490357       0.060000                    
       4.191452      -6.668681      -1.274803       0.060000                    
       3.270166      -6.025112      -2.662366       0.060000                    
       2.744949      -8.252020      -3.417024       0.060000                    
       4.507943      -8.137604      -3.158048       0.060000                    
       4.332237      -9.315670      -1.063823       0.060000                    
       3.495672     -10.263862      -2.324564       0.060000                    
       5.158386      -0.590185      -7.013160      -0.120000                    
       6.288536       0.423149      -6.821231      -0.120000                    
       6.205733       1.123636      -5.463477      -0.120000                    
       4.829543       1.747664      -5.223280      -0.120000                    
       3.699392       0.734325      -5.415217      -0.120000                    
       3.782194       0.033838      -6.772972      -0.120000                    
       5.298597      -1.405394      -6.306427       0.060000                    
       5.196898      -0.964822      -8.033825       0.060000                    
       7.239861      -0.100825      -6.884668       0.060000                    
       6.218575       1.174554      -7.604932       0.060000                    
       6.396476       0.391042      -4.682093       0.060000                    
       6.955044       1.911882      -5.432708       0.060000                    
       4.689339       2.562880      -5.930017       0.060000                    
       4.791037       2.122308      -4.202619       0.060000                    
       3.769352      -0.017079      -4.631517       0.060000                    
       2.748067       1.258305      -5.351772       0.060000                    
       3.591452       0.766433      -7.554356       0.060000                    
       3.032891      -0.754396      -6.803736       0.060000                    
       9.046432      -1.096054       5.632914      -0.120000                    
       8.572415      -0.425883       4.341764      -0.120000                    
       7.055342      -0.523657       4.168855      -0.120000                    
       6.557181      -1.965855       4.282290      -0.120000                    
       7.031196      -2.636014       5.573433      -0.120000                    
       8.548278      -2.538246       5.746345      -0.120000                    
       8.664982      -0.528882       6.479377       0.060000                    
      10.134341      -1.102257       5.642342       0.060000                    
       8.851798       0.625141       4.372672       0.060000                    
       9.050965      -0.918874       3.498182       0.060000                    
       6.577935       0.071142       4.944712       0.060000                    
       6.792239      -0.141367       3.184793       0.060000                    
       6.938632      -2.533023       3.435835       0.060000                    
       5.469272      -1.959653       4.272861       0.060000                    
       6.552647      -2.143036       6.417021       0.060000                    
       6.751820      -3.687043       5.542527       0.060000                    
       9.025678      -3.133052       4.970492       0.060000                    
       8.811365      -2.920536       6.730409       0.060000                    
       9.933371       1.425623       1.282877      -0.120000                    
      10.412230       2.626338       2.101363      -0.120000                    
      10.416422       3.916077       1.278171      -0.120000                    
      11.201828       3.761375      -0.025772      -0.120000                    
      10.722967       2.560661      -0.844258      -0.120000                    
      10.718778       1.270926      -0.021058      -0.120000                    
       8.882121       1.566804       1.040841       0.060000                    
      10.065937       0.524325       1.877579       0.060000                    
       9.743989       2.757584       2.949750       0.060000                    
      11.425471       2.430489       2.445841       0.060000                    
       9.388449       4.177271       1.035958       0.060000                    
      10.876735       4.704605       1.869813       0.060000                    
      12.253091       3.620196       0.216262       0.060000                    
      11.069267       4.662680      -0.620478       0.060000                    
       9.709729       2.756515      -1.188727       0.060000                    
      11.391210       2.429420      -1.692636       0.060000                    
      11.746751       1.009732       0.221155       0.060000                    
      10.258464       0.482394      -0.612708       0.060000                    
      -4.145690      -5.913703      -5.432916      -0.120000                    
      -4.995292      -4.678424      -5.127640      -0.120000                    
      -6.191692      -5.012248      -4.234216      -0.120000                    
      -7.030403      -6.158216      -4.803730      -0.120000                    
      -6.180800      -7.393495      -5.109006      -0.120000                    
      -4.984407      -7.059661      -6.002424      -0.120000                    
      -3.677756      -6.250520      -4.510288       0.060000                    
      -3.386812      -5.641849      -6.163528       0.060000                    
      -4.373465      -3.946325      -4.616797       0.060000                    
      -5.365214      -4.270293      -6.065894       0.060000                    
      -5.822361      -5.305590      -3.253823       0.060000                    
      -6.821024      -4.128616      -4.151479       0.060000                    
      -7.498336      -5.821400      -5.726357       0.060000                    
      -7.789295      -6.430071      -4.073116       0.060000                    
      -5.810893      -7.801627      -4.170750       0.060000                    
      -6.802642      -8.125595      -5.619846       0.060000                    
      -5.353731      -6.766330      -6.982823       0.060000                    
      -4.355069      -7.943304      -6.085166       0.060000                    
      -8.867019      -0.143972       3.350300      -0.120000                    
      -7.823023       0.950333       3.581529      -0.120000                    
      -7.425768       1.061291       5.054941      -0.120000                    