%nprocshared=4                                                                       
%mem=8GB                                                                             
#P pop=chelpg cam-b3lyp/gen scf=qc int=ultrafine charge td(nstates=10)               
                                                                                     
pNA CAM-B3LYP def2-TZVPD Single point - solvent def2-SV(P)                           
                                                                                     
0 1                                                                                  
 C       1.386341       0.000000       0.000000                                 
 C       0.000000       0.000000       0.000000                                 
 C      -0.712907       1.188984      -0.000000                                 
 C      -0.035635       2.384357       0.000131                                 
 C       1.365534       2.410943       0.000833                                 
 C       2.063239       1.195576       0.000133                                 
 H       1.918972      -0.938700       0.000854                                 
 H      -1.791888       1.163049       0.000837                                 
 H      -0.586620       3.315732      -0.002113                                 
 H       3.145392       1.202000      -0.002090                                 
 N      -0.713906      -1.260429       0.001744                                 
 O      -1.931758      -1.232720       0.002551                                 
 O      -0.063858      -2.290656       0.002518                                 
 N       2.037885       3.598040      -0.033161                                 
 H       1.540331       4.445798       0.174764                                 
 H       3.020819       3.607257       0.174736                                 
 C       1.033159       6.688127       2.314595                                 
 C      -0.067660       5.673192       1.999996                                 
 C      -1.280277       6.329976       1.337256                                 
 C      -1.807464       7.513458       2.151125                                 
 C      -0.706644       8.528393       2.465724                                 
 C       0.505970       7.871610       3.128473                                 
 H       1.438089       7.063675       1.377213                                 
 H       1.811308       6.190153       2.889182                                 
 H       0.334560       4.922645       1.322894                                 
 H      -0.388773       5.209034       2.930082                                 
 H      -0.986872       6.688221       0.352792                                 
 H      -2.071891       5.588855       1.248630                                 
 H      -2.212385       7.137914       3.088509                                 
 H      -2.585600       8.011427       1.576541                                 
 H      -0.385532       8.992551       1.535638                                 
 H      -1.108855       9.278937       3.142838                                 
 H       0.212576       7.513368       4.112929                                 
 H       1.297586       8.612730       3.217090                                 
 C       6.741267       2.498685       2.525064                                 
 C       5.560854       3.161523       3.237903                                 
 C       4.509732       3.673742       2.251110                                 
 C       5.120493       4.585334       1.184791                                 
 C       6.300906       3.922496       0.471952                                 
 C       7.352036       3.410281       1.458747                                 
 H       6.390263       1.588016       2.044303                                 
 H       7.506255       2.265314       3.262556                                 
 H       5.094628       2.428933       3.893335                                 
 H       5.933084       4.003622       3.817550                                 
 H       4.051144       2.819682       1.757205                                 
 H       3.760473       4.237611       2.802859                                 
 H       5.471501       5.495994       1.665552                                 
 H       4.355505       4.818704       0.447298                                 
 H       5.928688       3.080401      -0.107703                                 
 H       6.767136       4.655077      -0.183479                                 
 H       7.810616       4.264336       1.952649                                 
 H       8.101295       2.846412       0.906998                                 
 C       1.298874       7.172733      -3.119368                                 
 C       1.996169       8.014524      -4.189882                                 
 C       3.193670       7.285258      -4.802401                                 
 C       4.171755       6.791567      -3.734415                                 
 C       3.474460       5.949777      -2.663901                                 
 C       2.276959       6.679044      -2.051383                                 
 H       0.842561       6.309215      -3.598691                                 
 H       0.537766       7.783226      -2.638159                                 
 H       1.281280       8.233736      -4.980110                                 
 H       2.347698       8.936961      -3.732493                                 
 H       2.828671       6.427194      -5.362860                                 
 H       3.718175       7.972194      -5.463258                                 
 H       4.628067       7.655086      -3.255092                                 
 H       4.932862       6.181075      -4.215624                                 
 H       3.122930       5.027340      -3.121290                                 
 H       4.189344       5.730575      -1.873673                                 
 H       2.641958       7.537107      -1.490923                                 
 H       1.752454       5.992107      -1.390525                                 
 C      -6.025858       2.404125      -2.037905                                 
 C      -6.664321       3.629913      -1.381618                                 
 C      -5.719681       4.833510      -1.374623                                 
 C      -4.362499       4.493543      -0.755367                                 
 C      -3.724038       3.267755      -1.411643                                 
 C      -4.668691       2.064162      -1.418642                                 
 H      -5.882936       2.611255      -3.096363                                 
 H      -6.690949       1.553290      -1.906356                                 
 H      -7.560850       3.894842      -1.938047                                 
 H      -6.918097       3.381186      -0.353312                                 
 H      -5.562062       5.157743      -2.401093                                 
 H      -6.177167       5.631100      -0.793002                                 
 H      -4.505432       4.286408       0.303099                                 
 H      -3.697419       5.344373      -0.886907                                 
 H      -3.470262       3.516481      -2.439950                                 
 H      -2.827515       3.002822      -0.855226                                 
 H      -4.826295       1.739925      -0.392179                                 
 H      -4.211192       1.266567      -2.000260                                 
 C      -4.099936       0.511492       4.781828                                 
 C      -3.717142      -0.705638       3.937468                                 
 C      -2.206259      -0.946904       3.931789                                 
 C      -1.427467       0.304067       3.520076                                 
 C      -1.810254       1.521201       4.364448                                 
 C      -3.321146       1.762463       4.370124                                 
 H      -3.881350       0.293577       5.825086                                 
 H      -5.162533       0.704875       4.651375                                 
 H      -4.207932      -1.584050       4.351139                                 
 H      -4.046013      -0.536367       2.914317                                 
 H      -1.896438      -1.235161       4.934054                                 
 H      -1.984047      -1.743233       3.224509                                 
 H      -1.646055       0.521981       2.476827                                 
 H      -0.364872       0.110684       3.650539                                 
 H      -1.481392       1.351926       5.387597                                 
 H      -1.319474       2.399608       3.950774                                 
 H      -3.630967       2.050720       3.367860                                 
 H      -3.543356       2.558792       5.077394                                 
 C       6.485275      -2.190420      -1.006872                                 
 C       5.647560      -2.613173      -2.215366                                 
 C       4.164790      -2.752133      -1.864459                                 
 C       3.943845      -3.673740      -0.663288                                 
 C       4.781551      -3.250991       0.545203                                 
 C       6.264330      -3.112026       0.194299                                 
 H       6.202921      -1.178237      -0.725033                                 
 H       7.536939      -2.225673      -1.283302                                 
 H       5.751821      -1.858377      -2.991847                                 
 H       6.011996      -3.574272      -2.571929                                 
 H       3.770609      -1.767026      -1.624015                                 
 H       3.641956      -3.168524      -2.722911                                 
 H       4.226199      -4.685923      -0.945127                                 
 H       2.892181      -3.638487      -0.386858                                 
 H       4.417124      -2.289888       0.901769                                 
 H       4.677299      -4.005784       1.321687                                 
 H       6.658512      -4.097134      -0.046146                                 
 H       6.787164      -2.695636       1.052751                                 
                                                                                
      -0.623376       0.156341      -4.639785      -0.120000                    
       0.864245       0.503312      -4.553627      -0.120000                    
       1.162378       1.466406      -3.402727      -0.120000                    
       0.284377       2.718101      -3.460587      -0.120000                    
      -1.203245       2.371130      -3.546746      -0.120000                    
      -1.501382       1.408044      -4.697646      -0.120000                    
      -0.897544      -0.420199      -3.758814       0.060000                    
      -0.792296      -0.428773      -5.541253       0.060000                    
       1.426567      -0.414169      -4.393685       0.060000                    
       1.166344       0.973162      -5.487250       0.060000                    
       0.974335       0.952985      -2.462172       0.060000                    
       2.205249       1.770144      -3.464890       0.060000                    
       0.558535       3.294636      -4.341560       0.060000                    
       0.453296       3.303215      -2.559119       0.060000                    
      -1.505344       1.901280      -2.613122       0.060000                    
      -1.765567       3.288611      -3.706687       0.060000                    
      -1.313335       1.921456      -5.638200       0.060000                    
      -2.544249       1.104298      -4.635482       0.060000                    
       1.368236      -6.713080      -0.458949      -0.120000                    
      -0.075584      -7.049368      -0.080540      -0.120000                    
      -0.696140      -5.979310       0.819945      -0.120000                    
       0.167305      -5.694395       2.050508      -0.120000                    
       1.611127      -5.358094       1.672110      -0.120000                    
       2.231678      -6.428165       0.771624      -0.120000                    
       1.364550      -5.829190      -1.093242       0.060000                    
       1.793688      -7.559572      -0.993737       0.060000                    
      -0.665836      -7.122160      -0.991524       0.060000                    
      -0.083616      -7.998539       0.451153       0.060000                    
      -0.799326      -5.060097       0.247215       0.060000                    
      -1.671483      -6.327991       1.152813       0.060000                    
       0.170993      -6.578271       2.684812       0.060000                    
      -0.258153      -4.847894       2.585305       0.060000                    
       1.619159      -4.408923       1.140418       0.060000                    
       2.201386      -5.285311       2.583085       0.060000                    
       2.334864      -7.347377       1.344354       0.060000                    
       3.207033      -6.079480       0.438749       0.060000                    
      -0.541604      -3.522543      -3.384015      -0.120000                    
      -1.420596      -4.736449      -3.076284      -0.120000                    
      -0.701347      -6.054318      -3.371119      -0.120000                    
      -0.143575      -6.096888      -4.795213      -0.120000                    
       0.735420      -4.882981      -5.102954      -0.120000                    
       0.016160      -3.565117      -4.808111      -0.120000                    
       0.291598      -3.510303      -2.684530       0.060000                    
      -1.141320      -2.621751      -3.272342       0.060000                    
      -1.687263      -4.714270      -2.021739       0.060000                    
      -2.315314      -4.683159      -3.692964       0.060000                    
       0.124107      -6.164098      -2.670990       0.060000                    
      -1.409559      -6.871369      -3.250578       0.060000                    
      -0.976774      -6.109127      -5.494708       0.060000                    
       0.456144      -6.997680      -4.906895       0.060000                    
       1.630134      -4.936263      -4.486274       0.060000                    
       1.002087      -4.905161      -6.157498       0.060000                    
      -0.809285      -3.455333      -5.508238       0.060000                    
       0.724383      -2.748061      -4.928659       0.060000                    
      -6.053270      -4.257297      -0.323386      -0.120000                    
      -5.197500      -3.282305       0.487683      -0.120000                    
      -4.607230      -3.940065       1.736657      -0.120000                    
      -5.682764      -4.609277       2.594804      -0.120000                    
      -6.538530      -5.584279       1.783735      -0.120000                    
      -7.128798      -4.926518       0.534752      -0.120000                    
      -5.406028      -5.029346      -0.734120       0.060000                    
      -6.540888      -3.707565      -1.125651       0.060000                    
      -4.380645      -2.931744      -0.139624       0.060000                    
      -5.821379      -2.446338       0.796905       0.060000                    
      -3.890284      -4.696763       1.425213       0.060000                    
      -4.113599      -3.174948       2.332174       0.060000                    
      -6.330000      -3.837237       3.005529       0.060000                    
      -5.195144      -5.159009       3.397058       0.060000                    
      -5.914653      -6.420245       1.474513       0.060000                    
      -7.355387      -5.934830       2.411032       0.060000                    
      -7.845751      -4.169811       0.846205       0.060000                    
      -7.622433      -5.691626      -0.060765       0.060000                    
       4.266380      -2.343997       6.904013      -0.120000                    
       2.783278      -2.083496       6.633087      -0.120000                    
       2.404332      -2.384446       5.181597      -0.120000                    
       3.306242      -1.647885       4.189087      -0.120000                    
       4.789340      -1.908399       4.460011      -0.120000                    
       5.168290      -1.607436       5.911503      -0.120000                    
       4.453329      -3.412269       6.817016       0.060000                    
       4.501861      -2.000319       7.908990       0.060000                    
       2.192993      -2.722722       7.286215       0.060000                    
       2.571124      -1.036214       6.837790       0.060000                    
       2.501479      -3.454645       5.011635       0.060000                    
       1.376232      -2.068215       5.017973       0.060000                    
       3.119288      -0.579626       4.276083       0.060000                    
       3.070753      -1.991567       3.184108       0.060000                    
       5.001487      -2.955673       4.255318       0.060000                    
       5.379621      -1.269164       3.806883       0.060000                    
       5.071143      -0.537237       6.081465       0.060000                    
       6.196382      -1.923671       6.075125       0.060000                    
      -4.316651      -1.734541      -6.132371      -0.120000                    
      -5.371228      -0.654321      -5.883577      -0.120000                    
      -5.459025      -0.268749      -4.405526      -0.120000                    
      -5.665326      -1.489110      -3.506001      -0.120000                    
      -4.610753      -2.569322      -3.754797      -0.120000                    
      -4.522947      -2.954890      -5.232845      -0.120000                    
      -3.333915      -1.314558      -5.928557       0.060000                    
      -4.383076      -2.052728      -7.170637       0.060000                    
      -5.105227       0.230247      -6.458411       0.060000                    
      -6.339778      -1.034062      -6.201933       0.060000                    
      -4.531374       0.221894      -4.118503       0.060000                    
      -6.300620       0.407729      -4.272126       0.060000                    
      -6.648058      -1.909081      -3.709815       0.060000                    
      -5.598903      -1.170915      -2.467746       0.060000                    
      -3.642191      -2.189576      -3.436449       0.060000                    
      -4.876742      -3.453885      -3.179970       0.060000                    
      -5.450599      -3.445532      -5.519868       0.060000                    
      -3.681350      -3.631367      -5.366255       0.060000                    
       1.728445       4.823532       6.986680      -0.120000                    
       2.366481       3.569955       7.588670      -0.120000                    
       3.124387       2.752846       6.540404      -0.120000                    
       2.251116       2.425354       5.327488      -0.120000                    
       1.613072       3.678926       4.725496      -0.120000                    
       0.855174       4.496040       5.773764      -0.120000                    
       2.520391       5.500065       6.672355       0.060000                    
       1.107417       5.295907       7.744808       0.060000                    
       3.065733       3.874152       8.364601       0.060000                    
       1.580090       2.948583       8.011909       0.060000                    
       3.983638       3.329562       6.204645       0.060000                    
       3.450633       1.820200       6.995867       0.060000                    
       1.459170       1.748821       5.641813       0.060000                    
       2.872136       1.952975       4.569358       0.060000                    
       2.399472       4.300303       4.302259       0.060000                    
       0.913820       3.374729       3.949564       0.060000                    
      -0.004080       3.919333       6.109523       0.060000                    
       0.528929       5.428686       5.318301       0.060000                    
       7.370770       3.922270      -4.885566      -0.120000                    
       5.980351       3.312197      -5.073750      -0.120000                    
       5.577921       2.427588      -3.892004      -0.120000                    
       6.634088       1.363504      -3.586601      -0.120000                    
       8.024511       1.973589      -3.398416      -0.120000                    
       8.426931       2.858195      -4.580163      -0.120000                    
       7.333251       4.623432      -4.054525       0.060000                    
       7.651247       4.437601      -5.801688       0.060000                    
       5.256356       4.118925      -5.166539       0.060000                    
       5.986382       2.704897      -5.976423       0.060000                    
       5.453945       3.056730      -3.013102       0.060000                    
       4.641784       1.928779      -4.134090       0.060000                    
       6.671603       0.662350      -4.417643       0.060000                    
       6.353607       0.848182      -2.670480       0.060000                    
       8.018482       2.580880      -2.495731       0.060000                    
       8.748495       1.166857      -3.305619       0.060000                    
       8.550919       2.229057      -5.459063       0.060000                    
       9.363077       3.357007      -4.338076       0.060000                    
       1.094623      12.226678      -0.535200      -0.120000                    
       0.837710      10.718431      -0.542482      -0.120000                    
       1.889684       9.953959       0.263706      -0.120000                    
       3.313038      10.295011      -0.182132      -0.120000                    
       3.569950      11.803257      -0.174851      -0.120000                    
       2.517976      12.567730      -0.981039      -0.120000                    
       0.948479      12.599397       0.476436       0.060000                    
       0.393244      12.702142      -1.217516       0.060000                    
      -0.140268      10.530178      -0.104644       0.060000                    
       0.864609      10.366092      -1.571457       0.060000                    
       1.781831      10.217112       1.313846       0.060000                    
       1.727651       8.887290       0.123460       0.060000                    
       3.459190       9.922297      -1.193767       0.060000                    
       4.014424       9.819550       0.500186       0.060000                    
       3.543058      12.155601       0.854136       0.060000                    
       4.547936      11.991516      -0.612687       0.060000                    
       2.625827      12.304577      -2.031169       0.060000                    
       2.680018      13.634402      -0.840791       0.060000                    
       4.385571       7.545666       4.447192      -0.120000                    
       5.639247       6.820029       4.939858      -0.120000                    
       6.686900       7.792337       5.485799      -0.120000                    
       7.021588       8.897499       4.481999      -0.120000                    
       5.767929       9.623113       3.989358      -0.120000                    
       4.720281       8.650828       3.443398      -0.120000                    
       3.884120       7.993265       5.302698       0.060000                    
       3.732804       6.822370       3.963134       0.060000                    
       5.354177       6.133924       5.734537       0.060000                    
       6.074111       6.272376       4.106394       0.060000                    
       6.296381       8.251772       6.391359       0.060000                    
       7.595643       7.236283       5.706481       0.060000                    
       7.523055       8.449909       3.626508       0.060000                    
       7.674374       9.620794       4.966073       0.060000                    
       5.333065      10.170797       4.822803       0.060000                    
       6.052988      10.309245       3.194666       0.060000                    
       5.110794       8.191402       2.537837       0.060000                    
       3.811535       9.206890       3.222715       0.060000                    
      -2.339077       5.199705      -7.134235      -0.120000                    
      -1.918472       6.427454      -6.323907      -0.120000                    
      -2.379705       6.338584      -4.867756      -0.120000                    
      -3.881243       6.066093      -4.757586      -0.120000                    
      -4.301847       4.838344      -5.567914      -0.120000                    
      -3.840616       4.927213      -7.024066      -0.120000                    
      -1.799902       4.333075      -6.757497       0.060000                    
      -2.092801       5.372123      -8.179811       0.060000                    
      -0.833122       6.500205      -6.340983       0.060000                    
      -2.363099       7.311518      -6.776072       0.060000                    
      -1.842450       5.526874      -4.381791       0.060000                    
      -2.160901       7.283856      -4.375491       0.060000                    
      -4.420410       6.932729      -5.134323       0.060000                    
      -4.127510       5.893679      -3.712009       0.060000                    
      -3.857221       3.954281      -5.115750       0.060000                    
      -5.387190       4.765597      -5.550837       0.060000                    
      -4.377861       5.738928      -7.510028       0.060000                    
      -4.059422       3.981941      -7.516322       0.060000                    
      -6.942754       6.620056       3.452025      -0.120000                    
      -6.307366       5.775659       2.345616      -0.120000                    
      -6.471277       4.276385       2.603179      -0.120000                    
      -5.968079       3.874757       3.991166      -0.120000                    
      -6.603475       4.719149       5.097573      -0.120000                    
      -6.439564       6.218422       4.840010      -0.120000                    
      -8.021309       6.480981       3.419571       0.060000                    
      -6.691606       7.664486       3.279976       0.060000                    
      -6.788693       6.020820       1.401288       0.060000                    
      -5.245153       6.006260       2.298811       0.060000                    
      -7.527072       4.024381       2.529773       0.060000                    
      -5.900218       3.730645       1.855006       0.060000                    
      -4.889524       4.013831       4.023621       0.060000                    
      -6.219238       2.830322       4.163223       0.060000                    
      -7.665679       4.488552       5.144380       0.060000                    
      -6.122140       4.473992       6.041903       0.060000                    
      -5.383760       6.470432       4.913419       0.060000                    
      -7.010624       6.764163       5.588184       0.060000                    
      -1.074349      -4.482158       6.969385      -0.120000                    
      -1.113363      -4.713204       5.457416      -0.120000                    
      -2.460268      -5.275296       4.998130      -0.120000                    
      -2.854534      -6.529996       5.779973      -0.120000                    
      -2.815517      -6.298959       7.291943      -0.120000                    
      -1.468615      -5.736867       7.751239      -0.120000                    
      -1.771587      -3.684612       7.217354       0.060000                    
      -0.062357      -4.200075       7.252043       0.060000                    
      -0.944096      -3.762683       4.955944       0.060000                    
      -0.332279      -5.423247       5.193944       0.060000                    
      -3.224248      -4.515957       5.151033       0.060000                    
      -2.388563      -5.531304       3.943118       0.060000                    
      -2.157299      -7.327542       5.532013       0.060000                    
      -3.866525      -6.812088       5.497324       0.060000                    
      -3.596607      -5.588907       7.555424       0.060000                    
      -2.984788      -7.249470       7.793414       0.060000                    
      -0.704632      -6.496206       7.598326       0.060000                    
      -1.540319      -5.480859       8.806251       0.060000                    
       5.476158      -0.379152      -6.793139      -0.120000                    
       6.351578      -1.588413      -7.128148      -0.120000                    
       5.516466      -2.833924      -7.431947      -0.120000                    