%nprocshared=4                                                                       
%mem=8GB                                                                             
#P pop=chelpg cam-b3lyp/gen scf=qc int=ultrafine charge td(nstates=10)               
                                                                                     
pNA CAM-B3LYP def2-TZVPD Single point - solvent def2-SV(P)                           
                                                                                     
0 1                                                                                  
 C       1.386341       0.000000       0.000000                                 
 C       0.000000       0.000000       0.000000                                 
 C      -0.712907       1.188984      -0.000000                                 
 C      -0.035635       2.384357       0.000131                                 
 C       1.365534       2.410943       0.000833                                 
 C       2.063239       1.195576       0.000133                                 
 H       1.918972      -0.938700       0.000854                                 
 H      -1.791888       1.163049       0.000837                                 
 H      -0.586620       3.315732      -0.002113                                 
 H       3.145392       1.202000      -0.002090                                 
 N      -0.713906      -1.260429       0.001744                                 
 O      -1.931758      -1.232720       0.002551                                 
 O      -0.063858      -2.290656       0.002518                                 
 N       2.037885       3.598040      -0.033161                                 
 H       1.540331       4.445798       0.174764                                 
 H       3.020819       3.607257       0.174736                                 
 C      -0.871836       6.128755       3.460663                                 
 C       0.399142       5.378773       3.864316                                 
 C       1.646768       6.255229       3.736575                                 
 C       1.767818       6.880976       2.345603                                 
 C       0.496834       7.630950       1.941945                                 
 C      -0.750783       6.754489       2.069685                                 
 H      -1.052455       6.921244       4.183865                                 
 H      -1.702865       5.426642       3.454884                                 
 H       0.301623       5.061741       4.900476                                 
 H       0.513827       4.513925       3.214262                                 
 H       1.587548       7.053763       4.473106                                 
 H       2.524711       5.638817       3.918104                                 
 H       1.948436       6.088482       1.622409                                 
 H       2.598846       7.583084       2.351390                                 
 H       0.382153       8.495802       2.592012                                 
 H       0.594357       7.947985       0.905799                                 
 H      -0.691573       5.955956       1.333164                                 
 H      -1.628735       7.370905       1.888157                                 
 C       5.253234       3.076828      -2.937821                                 
 C       4.867320       4.411754      -2.297545                                 
 C       3.607811       5.007666      -2.929662                                 
 C       3.725730       5.114749      -4.451389                                 
 C       4.111645       3.779823      -5.091665                                 
 C       5.371153       3.183910      -4.459548                                 
 H       4.486822       2.342395      -2.699362                                 
 H       6.214317       2.763367      -2.535854                                 
 H       4.680665       4.248291      -1.238292                                 
 H       5.688706       5.112337      -2.432278                                 
 H       2.762108       4.366310      -2.690749                                 
 H       3.452480       6.004393      -2.522006                                 
 H       4.492141       5.849178      -4.689839                                 
 H       2.764641       5.428203      -4.853360                                 
 H       3.290258       3.079241      -4.956932                                 
 H       4.298297       3.943282      -6.150909                                 
 H       6.216856       3.825267      -4.698461                                 
 H       5.526483       2.187181      -4.867195                                 
 C       6.268188       1.047758       0.313540                                 
 C       6.254746       0.848083       1.830411                                 
 C       7.114932      -0.342300       2.259427                                 
 C       6.738141      -1.621688       1.509674                                 
 C       6.751582      -1.422014      -0.007197                                 
 C       5.891391      -0.231637      -0.436217                                 
 H       7.269807       1.345858       0.010986                                 
 H       5.550183       1.824319       0.058683                                 
 H       6.644770       1.747065       2.302915                                 
 H       5.229818       0.668925       2.148478                                 
 H       8.157321      -0.111127       2.050672                                 
 H       6.971443      -0.508778       3.325006                                 
 H       5.736523      -1.919801       1.812223                                 
 H       7.456140      -2.398256       1.764527                                 
 H       7.776505      -1.242863      -0.325269                                 
 H       6.361561      -2.321008      -0.479706                                 
 H       4.849001      -0.462810      -0.227462                                 
 H       6.034878      -0.065163      -1.501787                                 
 C       4.485929      -0.304777      -4.461864                                 
 C       3.059380      -0.555228      -3.968824                                 
 C       3.025398      -1.510119      -2.773829                                 
 C       3.769723      -2.815521      -3.061723                                 
 C       5.196270      -2.565057      -3.554757                                 
 C       5.230257      -1.610175      -4.749766                                 
 H       5.028234       0.242505      -3.693721                                 
 H       4.439451       0.278479      -5.379035                                 
 H       2.623965       0.394960      -3.667037                                 
 H       2.482841      -0.993644      -4.780653                                 
 H       3.497268      -1.020902      -1.924335                                 
 H       1.987792      -1.744671      -2.545644                                 
 H       3.227420      -3.362799      -3.829875                                 
 H       3.816203      -3.398773      -2.144561                                 
 H       5.772813      -2.126650      -2.742943                                 
 H       5.631690      -3.515254      -3.856559                                 
 H       4.758386      -2.099393      -5.599261                                 
 H       6.267855      -1.375618      -4.977951                                 
 C      -2.256899       1.784248       5.290593                                 
 C      -2.343679       1.360489       3.822995                                 
 C      -3.136978       2.363403       2.982860                                 
 C      -4.516856       2.646853       3.580065                                 
 C      -4.430092       3.070606       5.047669                                 
 C      -3.636785       2.067687       5.887803                                 
 H      -1.657065       2.689526       5.356222                                 
 H      -1.791096       0.981014       5.857454                                 
 H      -1.335148       1.291051       3.420936                                 
 H      -2.838859       0.393264       3.769069                                 
 H      -2.579525       3.296564       2.937211                                 
 H      -3.268205       1.953054       1.983805                                 
 H      -5.116706       1.741570       3.514442                                 
 H      -4.982674       3.450086       3.013201                                 
 H      -3.934902       4.037830       5.101584                                 
 H      -5.438615       3.140056       5.449723                                 
 H      -4.194245       1.134536       5.933444                                 
 H      -3.505565       2.478046       6.886850                                 
 C       5.666091       4.625023       3.828769                                 
 C       5.425993       5.064490       2.383059                                 
 C       6.736547       5.332931       1.640459                                 
 C       7.633142       6.315394       2.396724                                 
 C       7.873238       5.875924       3.842443                                 
 C       6.562685       5.607485       4.585033                                 
 H       6.148571       3.649934       3.820189                                 
 H       4.706664       4.566875       4.338397                                 
 H       4.887991       4.274014       1.864128                                 
 H       4.837223       5.979359       2.390973                                 
 H       7.270559       4.391939       1.526426                                 
 H       6.503354       5.755048       0.665199                                 
 H       7.150661       7.290483       2.405303                                 
 H       8.592568       6.373538       1.887105                                 
 H       8.462016       4.961064       3.834523                                 
 H       8.411242       6.666402       4.361365                                 
 H       6.028678       6.548481       4.699080                                 
 H       6.795879       5.185369       5.560294                                 
                                                                                
      -2.791564      -3.760869      -3.007473      -0.120000                    
      -1.495998      -4.497125      -3.354314      -0.120000                    
      -0.303840      -3.543299      -3.454021      -0.120000                    
      -0.577255      -2.382135      -4.412138      -0.120000                    
      -1.872820      -1.645875      -4.065306      -0.120000                    
      -3.064979      -2.599705      -3.965590      -0.120000                    
      -2.707165      -3.365622      -1.997357       0.060000                    
      -3.618796      -4.464800      -3.069340       0.060000                    
      -1.292117      -5.228127      -2.574813       0.060000                    
      -1.624670      -4.994254      -4.313468       0.060000                    
      -0.099518      -3.137604      -2.465438       0.060000                    
       0.557014      -4.099707      -3.818884       0.060000                    
      -0.661653      -2.777377      -5.422263       0.060000                    
       0.249978      -1.678200      -4.350280       0.060000                    
      -1.744148      -1.148746      -3.106153       0.060000                    
      -2.076706      -0.914879      -4.844812       0.060000                    
      -3.269301      -3.005400      -4.954173       0.060000                    
      -3.925838      -2.043300      -3.600740       0.060000                    
      -5.501677      -2.456134      -0.506723      -0.120000                    
      -5.965091      -1.159732      -1.174209      -0.120000                    
      -5.672676       0.067150      -0.308013      -0.120000                    
      -6.236160      -0.082303       1.106611      -0.120000                    
      -5.772754      -1.378700       1.774098      -0.120000                    
      -6.065166      -2.605594       0.907897      -0.120000                    
      -4.415258      -2.448495      -0.449165       0.060000                    
      -5.841820      -3.297211      -1.107086       0.060000                    
      -5.441022      -1.049630      -2.121209       0.060000                    
      -7.038463      -1.219275      -1.341591       0.060000                    
      -4.594525       0.196406      -0.240948       0.060000                    
      -6.128878       0.938185      -0.773722       0.060000                    
      -7.322594      -0.089948       1.049058       0.060000                    
      -5.896023       0.758766       1.706970       0.060000                    
      -4.699382      -1.319157       1.941480       0.060000                    
      -6.296815      -1.488807       2.721096       0.060000                    
      -7.143325      -2.734844       0.840833       0.060000                    
      -5.608958      -3.476623       1.373609       0.060000                    
       1.580518      -0.023357       3.510168      -0.120000                    
       1.061249       0.837107       4.663796      -0.120000                    
       2.124455       1.050586       5.743188      -0.120000                    
       2.715185      -0.272144       6.235584      -0.120000                    
       3.234446      -1.132602       5.081957      -0.120000                    
       2.171245      -1.346073       4.002570      -0.120000                    
       2.356533       0.530046       2.985547       0.060000                    
       0.752674      -0.240912       2.838677       0.060000                    
       0.767053       1.807202       4.268941       0.060000                    
       0.205596       0.337121       5.112717       0.060000                    
       2.926626       1.655757       5.326193       0.060000                    
       1.665549       1.561799       6.586861       0.060000                    
       1.939162      -0.825541       6.760207       0.060000                    
       3.543030      -0.054588       6.907075       0.060000                    
       4.090107      -0.632621       4.633035       0.060000                    
       3.528644      -2.102693       5.476803       0.060000                    
       1.369077      -1.951257       4.419559       0.060000                    
       2.630146      -1.857293       3.158893       0.060000                    
      -0.907483       2.931023      -6.583596      -0.120000                    
       0.238294       3.176450      -5.599798      -0.120000                    
       0.112164       2.309538      -4.345376      -0.120000                    
      -1.257123       2.460373      -3.679539      -0.120000                    
      -2.402892       2.214957      -4.663342      -0.120000                    
      -2.276768       3.081863      -5.917768      -0.120000                    
      -0.820141       1.919141      -6.973638       0.060000                    
      -0.832479       3.654894      -7.392246       0.060000                    
       1.177812       2.938324      -6.093889       0.060000                    
       0.222992       4.222822      -5.302247       0.060000                    
       0.248697       1.267728      -4.627537       0.060000                    
       0.879171       2.611778      -3.635370       0.060000                    
      -1.344466       3.472272      -3.289500       0.060000                    
      -1.332130       1.736515      -2.870883       0.060000                    
      -2.387591       1.168586      -4.960893       0.060000                    
      -3.342417       2.453076      -4.169255       0.060000                    
      -2.413303       4.123668      -5.635598       0.060000                    
      -3.043770       2.779629      -6.627769       0.060000                    
      -6.261620       5.668173      -0.902905      -0.120000                    
      -5.471158       6.931243      -1.250323      -0.120000                    
      -4.522416       6.707311      -2.429642      -0.120000                    
      -3.607285       5.501293      -2.208201      -0.120000                    
      -4.397743       4.238225      -1.860770      -0.120000                    
      -5.346489       4.462154      -0.681465      -0.120000                    
      -6.938605       5.444638      -1.724678       0.060000                    
      -6.823992       5.850175       0.010455       0.060000                    
      -6.173285       7.719383      -1.513809       0.060000                    
      -4.883919       7.223663      -0.382388       0.060000                    
      -5.115616       6.533895      -3.324978       0.060000                    
      -3.904732       7.594548      -2.552205       0.060000                    
      -2.930300       5.724823      -1.386419       0.060000                    
      -3.044904       5.319284      -3.121562       0.060000                    
      -4.984977       3.945796      -2.728719       0.060000                    
      -3.695614       3.450089      -1.597293       0.060000                    
      -4.753290       4.635566       0.213881       0.060000                    
      -5.964166       3.574925      -0.558897       0.060000                    
      -0.472218       7.668060      -3.002605      -0.120000                    
       1.034828       7.876034      -2.839895      -0.120000                    
       1.412627       9.358680      -2.845012      -0.120000                    
       0.863092      10.086110      -4.073768      -0.120000                    
      -0.643961       9.878142      -4.236476      -0.120000                    
      -1.021753       8.395492      -4.231360      -0.120000                    
      -0.973918       8.053173      -2.117357       0.060000                    
      -0.666348       6.603346      -3.113190       0.060000                    
       1.345517       7.441374      -1.892206       0.060000                    
       1.544816       7.384469      -3.665719       0.060000                    
       1.001778       9.825211      -1.952168       0.060000                    
       2.497491       9.440989      -2.848622       0.060000                    
       1.364785       9.700987      -4.959012       0.060000                    
       1.057217      11.150818      -3.963187       0.060000                    
      -1.153949      10.369690      -3.410648       0.060000                    
      -0.954648      10.312790      -5.184171       0.060000                    
      -0.610912       7.928949      -5.124199       0.060000                    
      -2.106623       8.313170      -4.227746       0.060000                    
      -3.839520      -2.365177       4.888493      -0.120000                    
      -2.624294      -2.860034       4.101555      -0.120000                    
      -1.766428      -3.827008       4.920134      -0.120000                    
      -1.370191      -3.235986       6.274648      -0.120000                    
      -2.585417      -2.741129       7.061586      -0.120000                    
      -3.443283      -1.774154       6.243006      -0.120000                    
      -4.509434      -3.205440       5.058407       0.060000                    
      -4.340605      -1.594829       4.306252       0.060000                    
      -2.974024      -3.375325       3.209518       0.060000                    
      -2.014797      -2.001656       3.826994       0.060000                    
      -2.336416      -4.737723       5.091516       0.060000                    
      -0.860920      -4.048552       4.359210       0.060000                    
      -0.700276      -2.395723       6.104733       0.060000                    
      -0.869111      -4.006341       6.856884       0.060000                    
      -3.194915      -3.599511       7.336156       0.060000                    
      -2.235686      -2.225838       7.953623       0.060000                    
      -2.873295      -0.863439       6.071624       0.060000                    
      -4.348793      -1.552615       6.803940       0.060000                    
       4.812393      -5.578165       1.315313      -0.120000                    
       6.013198      -6.487705       1.583065      -0.120000                    
       7.128403      -6.281765       0.555924      -0.120000                    
       6.617150      -6.415361      -0.879952      -0.120000                    
       5.416344      -5.505826      -1.147696      -0.120000                    
       4.301140      -5.711761      -0.120563      -0.120000                    
       5.113736      -4.546223       1.482459       0.060000                    
       4.009924      -5.852070       1.996961       0.060000                    
       6.405910      -6.262905       2.572401       0.060000                    
       5.682773      -7.523119       1.534523       0.060000                    
       7.541357      -5.283769       0.686503       0.060000                    
       7.897459      -7.033127       0.722440       0.060000                    
       6.315806      -7.447306      -1.047090       0.060000                    
       7.419618      -6.141460      -1.561591       0.060000                    
       5.746771      -4.470407      -1.099163       0.060000                    
       5.023632      -5.730625      -2.137031       0.060000                    
       3.888186      -6.709762      -0.251133       0.060000                    
       3.532089      -4.960395      -0.287066       0.060000                    
      -4.026162      -7.029949       1.374961      -0.120000                    
      -2.753245      -7.341296       0.585225      -0.120000                    
      -1.857339      -8.344528       1.314507      -0.120000                    
      -1.549545      -7.902927       2.746730      -0.120000                    
      -2.822470      -7.591575       3.536468      -0.120000                    
      -3.718376      -6.588344       2.807185      -0.120000                    
      -4.640435      -7.927134       1.412238       0.060000                    
      -4.560492      -6.227443       0.870958       0.060000                    
      -3.035553      -7.762756      -0.377197       0.060000                    
      -2.196947      -6.417064       0.443841       0.060000                    
      -2.367071      -9.305071       1.348781       0.060000                    
      -0.920083      -8.434041       0.769318       0.060000                    
      -0.935277      -7.005734       2.709468       0.060000                    
      -1.015215      -8.705434       3.250733       0.060000                    
      -3.378759      -8.515812       3.677850       0.060000                    
      -2.540164      -7.170118       4.498899       0.060000                    
      -3.208638      -5.627793       2.772915       0.060000                    
      -4.655625      -6.498839       3.352382       0.060000                    
      -0.050601      -8.952024      -3.159906      -0.120000                    
       0.079529      -8.002229      -1.967475      -0.120000                    
       1.338002      -7.136819      -2.058768      -0.120000                    
       2.599350      -7.978873      -2.261126      -0.120000                    
       2.469233      -8.928668      -3.453554      -0.120000                    
       1.210760      -9.794078      -3.362261      -0.120000                    
      -0.222207      -8.361674      -4.057522       0.060000                    
      -0.890126      -9.620677      -2.981830       0.060000                    
      -0.790542      -7.349417      -1.946340       0.060000                    
       0.129733      -8.593703      -1.055719       0.060000                    
       1.233294      -6.459004      -2.903291       0.060000                    
       1.440605      -6.573764      -1.133479       0.060000                    
       2.770967      -8.569226      -1.363498       0.060000                    
       3.438883      -7.310228      -2.439203       0.060000                    
       2.419016      -8.337194      -4.365312       0.060000                    
       3.339296      -9.581474      -3.474688       0.060000                    
       1.315460     -10.471887      -2.517737       0.060000                    
       1.108142     -10.357138      -4.287544       0.060000                    
      -6.383955       1.566216      -7.458883      -0.120000                    
      -7.074834       2.302161      -6.309109      -0.120000                    
      -6.270514       2.219358      -5.010176      -0.120000                    
      -5.924972       0.775306      -4.640909      -0.120000                    
      -5.234091       0.039361      -5.790685      -0.120000                    
      -6.038411       0.122164      -7.089616      -0.120000                    
      -5.463707       2.091824      -7.705039       0.060000                    
      -7.053168       1.555092      -8.316614       0.060000                    
      -7.185734       3.349115      -6.583234       0.060000                    
      -8.050455       1.850099      -6.143339       0.060000                    
      -5.344854       2.776470      -5.138293       0.060000                    
      -6.862820       2.651487      -4.206385       0.060000                    
      -6.845219       0.249698      -4.394754       0.060000                    
      -5.255758       0.786430      -3.783179       0.060000                    
      -4.258471       0.491423      -5.956454       0.060000                    
      -5.123191      -1.007593      -5.516559       0.060000                    
      -6.964072      -0.434948      -6.961500       0.060000                    
      -5.446105      -0.309965      -7.893408       0.060000                    
      -4.404013       6.645304       3.017236      -0.120000                    
      -4.143166       7.773745       4.016991      -0.120000                    
      -4.825965       7.517015       5.361943      -0.120000                    
      -6.319823       7.228222       5.200648      -0.120000                    
      -6.580669       6.099781       4.200893      -0.120000                    
      -5.897871       6.356512       2.855942      -0.120000                    
      -3.912169       5.743214       3.374988       0.060000                    
      -3.999984       6.937216       2.050223       0.060000                    
      -3.070527       7.851961       4.180958       0.060000                    
      -4.530190       8.702119       3.602226       0.060000                    
      -4.354423       6.656983       5.832695       0.060000                    
      -4.708111       8.400484       5.985889       0.060000                    
      -6.811666       8.130300       4.842891       0.060000                    
      -6.723858       6.936304       6.167658       0.060000                    
      -6.193652       5.171401       4.615654       0.060000                    
      -7.653302       6.021560       4.036926       0.060000                    
      -6.369420       7.216537       2.385185       0.060000                    
      -6.015731       5.473035       2.231992       0.060000                    
       6.595019      10.895599      -2.708543      -0.120000                    
       7.386936      10.580766      -1.437856      -0.120000                    
       7.867190       9.128394      -1.406957      -0.120000                    
       6.719783       8.140355      -1.626729      -0.120000                    
       5.927859       8.455177      -2.897412      -0.120000                    
       5.447612       9.907558      -2.928317      -0.120000                    
       7.269021      10.840816      -3.560825       0.060000                    
       6.179320      11.897042      -2.619983       0.060000                    
       8.255301      11.234982      -1.398280       0.060000                    
       6.745077      10.753081      -0.576474       0.060000                    
       8.602512       8.988449      -2.196469       0.060000                    
       8.314720       8.930809      -0.435147       0.060000                    
       6.045776       8.195132      -0.774452       0.060000                    
       7.135481       7.138908      -1.715281       0.060000                    
       6.569718       8.282861      -3.758795       0.060000                    
       5.059503       7.800972      -2.936993       0.060000                    
       4.712290      10.047504      -2.138804       0.060000                    
       5.000081      10.105142      -3.900117       0.060000                    
      -7.443175      -5.734757      -3.561178      -0.120000                    
      -8.550794      -6.011737      -4.579664      -0.120000                    
      -8.197829      -5.478129      -5.969527      -0.120000                    