%nprocshared=4                                                                       
%mem=8GB                                                                             
#P pop=chelpg cam-b3lyp/gen scf=qc int=ultrafine charge td(nstates=10)               
                                                                                     
pNA CAM-B3LYP def2-TZVPD Single point - solvent def2-SV(P)                           
                                                                                     
0 1                                                                                  
 C       1.386341       0.000000       0.000000                                 
 C       0.000000       0.000000       0.000000                                 
 C      -0.712907       1.188984      -0.000000                                 
 C      -0.035635       2.384357       0.000131                                 
 C       1.365534       2.410943       0.000833                                 
 C       2.063239       1.195576       0.000133                                 
 H       1.918972      -0.938700       0.000854                                 
 H      -1.791888       1.163049       0.000837                                 
 H      -0.586620       3.315732      -0.002113                                 
 H       3.145392       1.202000      -0.002090                                 
 N      -0.713906      -1.260429       0.001744                                 
 O      -1.931758      -1.232720       0.002551                                 
 O      -0.063858      -2.290656       0.002518                                 
 N       2.037885       3.598040      -0.033161                                 
 H       1.540331       4.445798       0.174764                                 
 H       3.020819       3.607257       0.174736                                 
 C      -0.263194       7.607842      -0.611069                                 
 C      -1.712232       7.639460      -0.120984                                 
 C      -2.373579       6.261899      -0.198369                                 
 C      -2.253891       5.646071      -1.593876                                 
 C      -0.804853       5.614452      -2.083960                                 
 C      -0.143508       6.992004      -2.006571                                 
 H       0.325805       7.012437       0.083372                                 
 H       0.113814       8.627671      -0.647590                                 
 H      -1.721771       7.971940       0.914823                                 
 H      -2.275166       8.330873      -0.744463                                 
 H      -1.886319       5.601677       0.515989                                 
 H      -3.428579       6.368600       0.045232                                 
 H      -2.842900       6.241477      -2.288318                                 
 H      -2.630898       4.626242      -1.557354                                 
 H      -0.241930       4.923032      -1.460479                                 
 H      -0.795323       5.281974      -3.119769                                 
 H      -0.630767       7.652240      -2.720924                                 
 H       0.911493       6.885317      -2.250168                                 
 C       2.755650      -2.881134       1.753741                                 
 C       4.030531      -2.041015       1.654815                                 
 C       5.276494      -2.909765       1.470651                                 
 C       5.385222      -3.991729       2.546996                                 
 C       4.110341      -4.831848       2.645922                                 
 C       2.864376      -3.963108       2.830090                                 
 H       2.580851      -3.362170       0.793675                                 
 H       1.925038      -2.224466       2.003572                                 
 H       3.942100      -1.374294       0.799722                                 
 H       4.140086      -1.466049       2.571926                                 
 H       5.223194      -3.392117       0.496946                                 
 H       6.156322      -2.272364       1.528358                                 
 H       5.560018      -3.510701       3.507066                                 
 H       6.215834      -4.648396       2.297165                                 
 H       4.000783      -5.406822       1.728815                                 
 H       4.198768      -5.498574       3.501028                                 
 H       2.917675      -3.480754       3.803795                                 
 H       1.984548      -4.600507       2.772383                                 
 C      -4.826257       2.996836      -2.327523                                 
 C      -4.394640       2.031207      -3.433022                                 
 C      -4.769474       0.583794      -3.108233                                 
 C      -4.250947       0.151622      -1.735132                                 
 C      -4.682551       1.117254      -0.629644                                 
 C      -4.307730       2.564665      -0.954422                                 
 H      -5.913384       3.025171      -2.295468                                 
 H      -4.429570       3.984286      -2.553936                                 
 H      -4.888781       2.318986      -4.358528                                 
 H      -3.314442       2.093425      -3.546859                                 
 H      -5.853848       0.495819      -3.113847                                 
 H      -4.334240      -0.066132      -3.864508                                 
 H      -3.163817       0.123296      -1.767192                                 
 H      -4.647632      -0.835819      -1.508724                                 
 H      -5.762752       1.055032      -0.515795                                 
 H      -4.188420       0.829481       0.295869                                 
 H      -3.223354       2.652648      -0.948812                                 
 H      -4.742964       3.214591      -0.198147                                 
 C       4.821799       5.363477      -2.621503                                 
 C       4.872554       3.836572      -2.538513                                 
 C       6.284687       3.296483      -2.773482                                 
 C       6.889005       3.819945      -4.078018                                 
 C       6.838250       5.346846      -4.161016                                 
 C       5.426117       5.886940      -3.926039                                 
 H       5.385276       5.775950      -1.787245                                 
 H       3.782392       5.680222      -2.568157                                 
 H       4.543978       3.531081      -1.547405                                 
 H       4.211956       3.424899      -3.298638                                 
 H       6.918641       3.609299      -1.946510                                 
 H       6.237794       2.210618      -2.823181                                 
 H       6.325528       3.407473      -4.912276                                 
 H       7.928403       3.503198      -4.131374                                 
 H       7.498838       5.758524      -3.400884                                 
 H       7.166816       5.652342      -5.152117                                 
 H       4.792164       5.574119      -4.753019                                 
 H       5.473009       6.972803      -3.876339                                 
 C       3.822701       2.440367       5.212343                                 
 C       4.477452       1.059215       5.279302                                 
 C       5.735489       0.978720       4.412166                                 
 C       5.467287       1.416606       2.970875                                 
 C       4.812538       2.797767       2.903912                                 
 C       3.554502       2.878262       3.771049                                 
 H       4.489007       3.163958       5.677253                                 
 H       2.875457       2.402371       5.746110                                 
 H       4.753170       0.854726       6.311678                                 
 H       3.763448       0.318418       4.925585                                 
 H       6.493988       1.631801       4.838542                                 
 H       6.086143      -0.051177       4.403080                                 
 H       4.800974       0.693026       2.505959                                 
 H       6.414520       1.454608       2.437115                                 
 H       5.526538       3.538560       3.257643                                 
 H       4.536820       3.002256       1.871536                                 
 H       2.796000       2.225173       3.344677                                 
 H       3.203848       3.908160       3.780134                                 
 C       4.969106      -2.677632      -2.778903                                 
 C       3.908323      -2.956944      -3.845532                                 
 C       3.742550      -1.781326      -4.810640                                 
 C       3.481265      -0.466530      -4.073084                                 
 C       4.542052      -0.187212      -3.006468                                 
 C       4.707815      -1.362829      -2.041362                                 
 H       5.941517      -2.617369      -3.263088                                 
 H       4.957357      -3.490227      -2.055673                                 
 H       4.209741      -3.833928      -4.414403                                 
 H       2.956413      -3.137166      -3.350428                                 
 H       4.655846      -1.677940      -5.392711                                 
 H       2.898542      -1.985931      -5.466030                                 
 H       2.508847      -0.526786      -3.588914                                 
 H       3.493008       0.346071      -4.796330                                 
 H       5.493950      -0.006984      -3.501566                                 
 H       4.240622       0.689765      -2.437595                                 
 H       3.794528      -1.466212      -1.459281                                 
 H       5.551822      -1.158220      -1.385964                                 
                                                                                
      -2.964131      -4.377876       3.846605      -0.120000                    
      -3.402052      -3.648861       2.574719      -0.120000                    
      -3.339862      -4.555833       1.344035      -0.120000                    
      -1.967087      -5.212380       1.184489      -0.120000                    
      -1.529167      -5.941395       2.456374      -0.120000                    
      -1.591354      -5.034414       3.687054      -0.120000                    
      -3.695086      -5.151182       4.073309       0.060000                    
      -2.912453      -3.657343       4.660051       0.060000                    
      -4.427239      -3.308664       2.704435       0.060000                    
      -2.740204      -2.800261       2.414979       0.060000                    
      -4.088959      -5.337676       1.450123       0.060000                    
      -3.543249      -3.955954       0.459482       0.060000                    
      -1.236133      -4.439074       0.957784       0.060000                    
      -2.018763      -5.932904       0.371039       0.060000                    
      -2.191024      -6.789994       2.616112       0.060000                    
      -0.503979      -6.281592       2.326658       0.060000                    
      -0.842259      -4.252585       3.580962       0.060000                    
      -1.387970      -5.634302       4.571611       0.060000                    
       4.225782       8.149630       1.858455      -0.120000                    
       5.140775       6.941405       1.648909      -0.120000                    
       5.872892       6.547328       2.933311      -0.120000                    
       6.618791       7.730256       3.554045      -0.120000                    
       5.703796       8.938473       3.763596      -0.120000                    
       4.971680       9.332545       2.479184      -0.120000                    
       3.415841       7.860916       2.525010       0.060000                    
       3.828841       8.456730       0.893226       0.060000                    
       4.535013       6.099080       1.321620       0.060000                    
       5.879566       7.192110       0.890591       0.060000                    
       5.142311       6.181399       3.651613       0.060000                    
       6.593555       5.767157       2.697301       0.060000                    
       7.428742       8.018969       2.887491       0.060000                    
       7.015733       7.423152       4.519265       0.060000                    
       4.965016       8.687776       4.521911       0.060000                    
       6.309561       9.780802       4.090872       0.060000                    
       5.702261       9.698486       1.760887       0.060000                    
       4.251018      10.112728       2.715199       0.060000                    
       0.041326       1.020894       5.094578      -0.120000                    
      -1.249183       0.826364       5.893122      -0.120000                    
      -1.306065      -0.547270       6.564601      -0.120000                    
      -1.072910      -1.683376       5.566610      -0.120000                    
       0.217608      -1.488847       4.768068      -0.120000                    
       0.274490      -0.115213       4.096590      -0.120000                    
       0.878521       1.051148       5.788722       0.060000                    
      -0.027487       1.957423       4.545328       0.060000                    
      -1.299955       1.592484       6.663888       0.060000                    
      -2.094858       0.916975       5.214703       0.060000                    
      -0.533865      -0.592571       7.329633       0.060000                    
      -2.289194      -0.674648       7.012864       0.060000                    
      -1.910096      -1.713631       4.872468       0.060000                    
      -1.004088      -2.619906       6.115861       0.060000                    
       1.063283      -1.579459       5.446488       0.060000                    
       0.268370      -2.254966       3.997300       0.060000                    
      -0.497722      -0.069919       3.331560       0.060000                    
       1.257620       0.012160       3.648318       0.060000                    
      -1.398964      -3.117170      -3.732785      -0.120000                    
      -0.911102      -4.567245      -3.744391      -0.120000                    
       0.202580      -4.789022      -4.769880      -0.120000                    
      -0.199393      -4.308407      -6.165721      -0.120000                    
      -0.687262      -2.858321      -6.154122      -0.120000                    
      -1.800934      -2.636550      -5.128640      -0.120000                    
      -0.595319      -2.482866      -3.364744       0.060000                    
      -2.265051      -3.046930      -3.078132       0.060000                    
      -0.527883      -4.813095      -2.756338       0.060000                    
      -1.749013      -5.214006      -3.995836       0.060000                    
       1.083387      -4.235330      -4.451784       0.060000                    
       0.423186      -5.853288      -4.818805       0.060000                    
      -1.003034      -4.942707      -6.533776       0.060000                    
       0.666696      -4.378638      -6.820378       0.060000                    
       0.150658      -2.211562      -5.902675       0.060000                    
      -1.070470      -2.612478      -7.142182       0.060000                    
      -2.681742      -3.190238      -5.446726       0.060000                    
      -2.021539      -1.572285      -5.079715       0.060000                    
       0.026790       5.164876       4.221253      -0.120000                    
       0.360471       4.519639       5.567810      -0.120000                    
       0.583778       5.563572       6.663865      -0.120000                    
       1.623495       6.609415       6.256206      -0.120000                    
       1.289815       7.254651       4.909648      -0.120000                    
       1.066499       6.210715       3.813582      -0.120000                    
      -0.943249       5.651158       4.299605       0.060000                    
      -0.001115       4.387527       3.460624       0.060000                    
      -0.468492       3.879173       5.861414       0.060000                    
       1.269708       3.932662       5.456313       0.060000                    
      -0.359442       6.069034       6.859926       0.060000                    
       0.933763       5.056623       7.560675       0.060000                    
       2.593533       6.123123       6.177857       0.060000                    
       1.651389       7.386757       7.016838       0.060000                    
       0.380575       7.841619       5.021149       0.060000                    
       2.118779       7.895113       4.616035       0.060000                    
       2.009729       5.705253       3.617524       0.060000                    
       0.716521       6.717658       2.916788       0.060000                    
       1.687332       2.632205      -5.804619      -0.120000                    
       1.062420       2.262692      -4.457853      -0.120000                    
       0.038409       1.133759      -4.591706      -0.120000                    
      -1.022291       1.444331      -5.649722      -0.120000                    
      -0.397378       1.813839      -6.996496      -0.120000                    
       0.626632       2.942774      -6.862643      -0.120000                    
       2.288530       1.794043      -6.150627       0.060000                    
       2.311009       3.513147      -5.668525       0.060000                    
       1.853088       1.936918      -3.785367       0.060000                    
       0.561631       3.140258      -4.054418       0.060000                    
       0.560147       0.223389      -4.879201       0.060000                    
      -0.456749       0.997996      -3.632487       0.060000                    
      -1.623489       2.282490      -5.303722       0.060000                    
      -1.645968       0.563386      -5.785824       0.060000                    
       0.103400       0.936280      -7.399924       0.060000                    
      -1.188045       2.139622      -7.668986       0.060000                    
       0.104894       3.853143      -6.575148       0.060000                    
       1.121781       3.078538      -7.821864       0.060000                    
      -4.618340       2.985276       5.696770      -0.120000                    
      -3.749571       3.547458       4.569773      -0.120000                    
      -4.489817       3.567008       3.230852      -0.120000                    
      -5.071237       2.196659       2.877146      -0.120000                    
      -5.939995       1.634475       4.004145      -0.120000                    
      -5.199750       1.614926       5.343067      -0.120000                    
      -5.439819       3.674813       5.879507       0.060000                    
      -4.005785       2.882985       6.589998       0.060000                    
      -3.465496       4.566183       4.824894       0.060000                    
      -2.864447       2.922970       4.468566       0.060000                    
      -5.305042       4.284609       3.294755       0.060000                    
      -3.789916       3.859528       2.450937       0.060000                    
      -4.249744       1.507130       2.694407       0.060000                    
      -5.683791       2.298949       1.983918       0.060000                    
      -6.825129       2.258964       4.105350       0.060000                    
      -6.224080       0.615751       3.749021       0.060000                    
      -4.384524       0.897324       5.279163       0.060000                    
      -5.899660       1.322407       6.122980       0.060000                    
       8.426529       0.548856      -1.693011      -0.120000                    
       7.991534       1.225540      -0.391575      -0.120000                    
       8.995492       0.992038       0.739180      -0.120000                    
       9.297980      -0.494382       0.939401      -0.120000                    
       9.732978      -1.171070      -0.362044      -0.120000                    
       8.729018      -0.937564      -1.492790      -0.120000                    
       9.326150       1.040763      -2.056833       0.060000                    
       7.623264       0.645279      -2.420385       0.060000                    
       7.908418       2.295988      -0.567139       0.060000                    
       7.028988       0.816460      -0.091834       0.060000                    
       9.922500       1.505333       0.492555       0.060000                    
       8.578233       1.389296       1.662101       0.060000                    
       8.398351      -0.986288       1.303221       0.060000                    
      10.101247      -0.590810       1.666766       0.060000                    
      10.695524      -0.761991      -0.661785       0.060000                    
       9.816083      -2.241513      -0.186473       0.060000                    
       7.802008      -1.450868      -1.246162       0.060000                    
       9.146279      -1.334826      -2.415720       0.060000                    
      -7.795308      -2.606976       1.022554      -0.120000                    
      -6.696252      -2.866957      -0.009638      -0.120000                    
      -7.106142      -3.933856      -1.026844      -0.120000                    
      -7.572021      -5.223769      -0.348567      -0.120000                    
      -8.671086      -4.963786       0.683623      -0.120000                    
      -8.261199      -3.896896       1.700834      -0.120000                    
      -8.645578      -2.152738       0.518190       0.060000                    
      -7.405224      -1.935061       1.784078       0.060000                    
      -6.492180      -1.939926      -0.541194       0.060000                    
      -5.803792      -3.207673       0.511045       0.060000                    
      -7.923135      -3.543510      -1.629999       0.060000                    
      -6.248357      -4.162131      -1.655958       0.060000                    
      -6.721751      -5.678007       0.155797       0.060000                    
      -7.962116      -5.895679      -1.110084       0.060000                    
      -9.563546      -4.623071       0.162940       0.060000                    
      -8.875158      -5.890817       1.215179       0.060000                    
      -7.444203      -4.287233       2.303984       0.060000                    
      -9.118982      -3.668613       2.329943       0.060000                    
       1.217467      -7.993899      -2.644491      -0.120000                    
       2.120979      -8.356233      -3.824856      -0.120000                    
       3.520540      -8.773252      -3.368381      -0.120000                    
       4.161905      -7.725671      -2.456143      -0.120000                    
       3.258391      -7.363347      -1.275774      -0.120000                    
       1.858820      -6.946326      -1.732251      -0.120000                    
       1.028833      -8.893291      -2.062115       0.060000                    
       0.283493      -7.592468      -3.031945       0.060000                    
       1.670291      -9.185488      -4.365976       0.060000                    
       2.211314      -7.487212      -4.473170       0.060000                    
       3.442893      -9.710226      -2.820940       0.060000                    
       4.149230      -8.900686      -4.247161       0.060000                    
       4.350530      -6.826277      -3.038520       0.060000                    
       5.095871      -8.127105      -2.068700       0.060000                    
       3.168058      -8.232359      -0.627464       0.060000                    
       3.709069      -6.534089      -0.734654       0.060000                    
       1.936477      -6.009353      -2.279690       0.060000                    
       1.230142      -6.818884      -0.853472       0.060000                    
       6.027869      11.536486      -2.282924      -0.120000                    
       5.830373      10.227127      -3.049387      -0.120000                    
       4.352437       9.848943      -3.166594      -0.120000                    
       3.656776       9.825973      -1.804034      -0.120000                    
       3.854263      11.135333      -1.037573      -0.120000                    
       5.332208      11.513515      -0.920365      -0.120000                    
       5.611248      12.350599      -2.872279       0.060000                    
       7.093402      11.690601      -2.126675       0.060000                    
       6.239452      10.345176      -4.050501       0.060000                    
       6.351703       9.432320      -2.520009       0.060000                    
       3.855126      10.581719      -3.798553       0.060000                    
       4.281293       8.857965      -3.610010       0.060000                    
       4.073390       9.011869      -1.214686       0.060000                    
       2.591234       9.671859      -1.960286       0.060000                    
       3.332931      11.930144      -1.566942       0.060000                    
       3.445194      11.017282      -0.036457       0.060000                    
       5.829520      10.780740      -0.288406       0.060000                    
       5.403352      12.504492      -0.476949       0.060000                    
       1.963379      -5.951146       6.349430      -0.120000                    
       3.480104      -5.801226       6.483072      -0.120000                    
       3.867551      -4.954045       7.696801      -0.120000                    
       3.155193      -3.599995       7.701709      -0.120000                    
       1.638467      -3.749911       7.568076      -0.120000                    
       1.251021      -4.597092       6.354348      -0.120000                    
       1.596959      -6.539809       7.187819       0.060000                    
       1.745203      -6.455348       5.410411       0.060000                    
       3.918737      -6.790479       6.595308       0.060000                    
       3.862211      -5.318643       5.585979       0.060000                    
       3.592925      -5.494667       8.600097       0.060000                    
       4.941523      -4.781772       7.671945       0.060000                    
       3.521609      -3.011338       6.863334       0.060000                    
       3.373369      -3.095788       8.640737       0.060000                    
       1.256361      -4.232498       8.465160       0.060000                    
       1.199834      -2.760658       7.455840       0.060000                    
       1.525638      -4.056473       5.451040       0.060000                    
       0.177046      -4.769373       6.379208       0.060000                    
      -0.768958      11.311237       2.069059      -0.120000                    
       0.556950      11.320031       1.305638      -0.120000                    
       1.586415      12.246648       1.955692      -0.120000                    
       1.035735      13.658852       2.164107      -0.120000                    
      -0.290171      13.650067       2.927527      -0.120000                    
      -1.319636      12.723452       2.277470      -0.120000                    
      -0.606417      10.854239       3.042904       0.060000                    
      -1.494833      10.735730       1.498558       0.060000                    
       0.957986      10.308775       1.293692       0.060000                    
       0.371366      11.664373       0.290392       0.060000                    
       1.862468      11.834702       2.924041       0.060000                    
       2.458769      12.305719       1.308202       0.060000                    
       0.873194      14.115850       1.190262       0.060000                    
       1.761619      14.234358       2.734611       0.060000                    
      -0.104587      13.305725       3.942772       0.060000                    
      -0.691200      14.661314       2.939478       0.060000                    
      -1.595689      13.135397       1.309121       0.060000                    
      -2.191980      12.664377       2.924963       0.060000                    
      -6.353582       7.764742       0.879969      -0.120000                    
      -7.178216       9.051642       0.810620      -0.120000                    
      -6.377595      10.270925       1.272553      -0.120000                    