%nprocshared=4                                                                       
%mem=8GB                                                                             
#P pop=chelpg cam-b3lyp/gen scf=qc int=ultrafine charge td(nstates=10)               
                                                                                     
pNA CAM-B3LYP def2-TZVPD Single point - solvent def2-SV(P)                           
                                                                                     
0 1                                                                                  
 C       1.386341       0.000000       0.000000                                 
 C       0.000000       0.000000       0.000000                                 
 C      -0.712907       1.188984      -0.000000                                 
 C      -0.035635       2.384357       0.000131                                 
 C       1.365534       2.410943       0.000833                                 
 C       2.063239       1.195576       0.000133                                 
 H       1.918972      -0.938700       0.000854                                 
 H      -1.791888       1.163049       0.000837                                 
 H      -0.586620       3.315732      -0.002113                                 
 H       3.145392       1.202000      -0.002090                                 
 N      -0.713906      -1.260429       0.001744                                 
 O      -1.931758      -1.232720       0.002551                                 
 O      -0.063858      -2.290656       0.002518                                 
 N       2.037885       3.598040      -0.033161                                 
 H       1.540331       4.445798       0.174764                                 
 H       3.020819       3.607257       0.174736                                 
 C       6.497200       2.895923       2.967236                                 
 C       6.015038       4.090512       2.141769                                 
 C       4.841648       4.811545       2.808330                                 
 C       3.699329       3.852859       3.150445                                 
 C       4.181482       2.658274       3.975914                                 
 C       5.354881       1.937237       3.309350                                 
 H       6.929972       3.265924       3.894329                                 
 H       7.244827       2.354495       2.391510                                 
 H       6.838487       4.793173       2.033194                                 
 H       5.693787       3.731954       1.166101                                 
 H       5.194677       5.273881       3.727703                                 
 H       4.466034       5.569969       2.124654                                 
 H       3.266548       3.482862       2.223355                                 
 H       2.951702       4.394288       3.726170                                 
 H       4.502742       3.016828       4.951579                                 
 H       3.358041       1.955609       4.084486                                 
 H       5.001852       1.474901       2.389977                                 
 H       5.730494       1.178813       3.993027                                 
 C       5.516755       4.825371      -2.728080                                 
 C       4.601197       5.242261      -1.575311                                 
 C       4.882143       6.672037      -1.108618                                 
 C       6.359590       6.885738      -0.773111                                 
 C       7.275143       6.468839      -1.925884                                 
 C       6.994199       5.039058      -2.392568                                 
 H       5.268867       5.423155      -3.602632                                 
 H       5.356460       3.769443      -2.934990                                 
 H       3.568561       5.183239      -1.912634                                 
 H       4.764406       4.565322      -0.739393                                 
 H       4.603615       7.358825      -1.905096                                 
 H       4.291097       6.869055      -0.216679                                 
 H       6.607473       6.287941       0.101446                                 
 H       6.519886       7.941661      -0.566192                                 
 H       7.111926       7.145779      -2.761790                                 
 H       8.307780       6.527856      -1.588552                                 
 H       7.272731       4.352279      -1.596087                                 
 H       7.585249       4.842050      -3.284503                                 
 C      -3.224940      -1.297764      -3.239448                                 
 C      -3.567330      -1.497850      -4.717169                                 
 C      -2.560113      -0.805617      -5.637680                                 
 C      -2.383415       0.672795      -5.285498                                 
 C      -2.041026       0.872881      -3.807777                                 
 C      -3.048237       0.180656      -2.887264                                 
 H      -2.295100      -1.819976      -3.024211                                 
 H      -4.034321      -1.704344      -2.636861                                 
 H      -3.561183      -2.563882      -4.934254                                 
 H      -4.554216      -1.080181      -4.905092                                 
 H      -1.598285      -1.304181      -5.538020                                 
 H      -2.918471      -0.878451      -6.662389                                 
 H      -3.313250       1.195016      -5.500732                                 
 H      -1.574035       1.079375      -5.888085                                 
 H      -1.054126       0.455216      -3.619854                                 
 H      -2.047173       1.938914      -3.590693                                 
 H      -4.010071       0.679213      -2.986926                                 
 H      -2.689885       0.253483      -1.862557                                 
 C       5.544835       0.505209      -3.414435                                 
 C       4.989158       0.026438      -2.071696                                 
 C       5.804920       0.558124      -0.891497                                 
 C       7.295755       0.246956      -1.038519                                 
 C       7.851432       0.725728      -2.381257                                 
 C       7.035677       0.194038      -3.561459                                 
 H       5.405933       1.582019      -3.484160                                 
 H       5.004319       0.002470      -4.213560                                 
 H       3.964858       0.379573      -1.973504                                 
 H       5.016994      -1.060995      -2.051737                                 
 H       5.678494       1.637467      -0.839621                                 
 H       5.440697       0.091268       0.021237                                 
 H       7.434665      -0.829858      -0.968796                                 
 H       7.836279       0.749691      -0.239397                                 
 H       7.823604       1.813156      -2.401219                                 
 H       8.875746       0.372596      -2.479449                                 
 H       7.162105      -0.885310      -3.613326                                 
 H       7.399893       0.660898      -4.474191                                 
 C      -7.362054       0.440922       2.078957                                 
 C      -6.638692       0.801507       0.779885                                 
 C      -5.420013      -0.090824       0.535832                                 
 C      -4.470521      -0.105198       1.735511                                 
 C      -5.193883      -0.465783       3.034582                                 
 C      -6.412563       0.426552       3.278627                                 
 H      -7.799581      -0.549213       1.969990                                 
 H      -8.140080       1.179391       2.260189                                 
 H      -7.331604       0.678145      -0.049699                                 
 H      -6.305593       1.835311       0.842795                                 
 H      -5.763958      -1.106546       0.352456                                 
 H      -4.880351       0.286916      -0.330061                                 
 H      -4.032994       0.884936       1.844479                                 
 H      -3.692495      -0.843667       1.554279                                 
 H      -5.526988      -1.499591       2.971661                                 
 H      -4.500972      -0.342416       3.864158                                 
 H      -6.068623       1.442266       3.462000                                 
 H      -6.952230       0.048804       4.144516                                 
 C       3.366908      -2.101443       3.256712                                 
 C       2.261052      -2.956918       2.635286                                 
 C       2.826624      -4.135929       1.840910                                 
 C       3.855551      -3.686172       0.801669                                 
 C       4.961403      -2.830685       1.423100                                 
 C       4.395838      -1.651674       2.217465                                 
 H       3.875563      -2.689739       4.017526                                 
 H       2.914254      -1.218328       3.702578                                 
 H       1.631942      -3.345242       3.433419                                 
 H       1.675596      -2.333489       1.962799                                 
 H       3.309164      -4.822298       2.533510                                 
 H       2.007250      -4.633329       1.326210                                 
 H       3.346892      -3.097864       0.040861                                 
 H       4.308204      -4.569283       0.355794                                 
 H       5.546868      -3.454118       2.095585                                 
 H       5.590522      -2.442365       0.624965                                 
 H       3.913285      -0.965308       1.524864                                 
 H       5.215209      -1.154285       2.732171                                 
                                                                                
       0.566363       7.649441      -2.930157      -0.120000                    
      -0.002036       6.984166      -1.675126      -0.120000                    
      -1.460698       6.561429      -1.861191      -0.120000                    
      -2.336463       7.720117      -2.342318      -0.120000                    
      -1.768056       8.385386      -3.597352      -0.120000                    
      -0.309403       8.808128      -3.411283      -0.120000                    
       0.624579       6.905591      -3.721968       0.060000                    
       1.557585       8.034800      -2.700848       0.060000                    
       0.590509       6.099498      -1.451769       0.060000                    
       0.052188       7.692576      -0.851174       0.060000                    
      -1.500153       5.765109      -2.601435       0.060000                    
      -1.844852       6.208453      -0.906436       0.060000                    
      -2.394684       8.463958      -1.550509       0.060000                    
      -3.327690       7.334750      -2.571629       0.060000                    
      -1.822285       7.676969      -4.421306       0.060000                    
      -2.360609       9.270060      -3.820705       0.060000                    
      -0.269952       9.604441      -2.671043       0.060000                    
       0.074752       9.161104      -4.366038       0.060000                    
       1.295875      -1.928842      -4.268681      -0.120000                    
       2.280163      -2.615941      -5.217332      -0.120000                    
       1.640539      -3.797395      -5.949541      -0.120000                    
       0.991088      -4.788262      -4.981383      -0.120000                    
       0.006792      -4.101159      -4.032729      -0.120000                    
       0.646419      -2.919718      -3.300527      -0.120000                    
       0.513892      -1.457750      -4.860484       0.060000                    
       1.834436      -1.180629      -3.691041       0.060000                    
       2.616124      -1.890364      -5.955067       0.060000                    
       3.124235      -2.982427      -4.636899       0.060000                    
       0.875230      -3.416324      -6.622375       0.060000                    
       2.413126      -4.316975      -6.512482       0.060000                    
       1.773066      -5.259362      -4.389584       0.060000                    
       0.452523      -5.536483      -5.559028       0.060000                    
      -0.837277      -3.734686      -4.613169       0.060000                    
      -0.329167      -4.826748      -3.295001       0.060000                    
       1.411728      -3.300788      -2.627692       0.060000                    
      -0.126167      -2.400137      -2.737586       0.060000                    
      -0.315345       6.870312       3.968253      -0.120000                    
      -0.069981       8.198156       4.687634      -0.120000                    
       0.224662       9.335238       3.707213      -0.120000                    
       1.363623       8.984233       2.747766      -0.120000                    
       1.118264       7.656401       2.028380      -0.120000                    
       0.823620       6.519320       3.008801      -0.120000                    
      -1.238442       6.949243       3.397955       0.060000                    
      -0.398124       6.081521       4.712932       0.060000                    
      -0.959805       8.453636       5.259066       0.060000                    
       0.784095       8.081364       5.351412       0.060000                    
      -0.672450       9.532948       3.124375       0.060000                    
       0.508221      10.218998       4.274905       0.060000                    
       2.286734       8.905305       3.318064       0.060000                    
       1.446411       9.773019       2.003084       0.060000                    
       0.264183       7.773180       1.364608       0.060000                    
       2.008084       7.400909       1.456954       0.060000                    
       1.720734       6.321604       3.591647       0.060000                    
       0.540057       5.635546       2.441115       0.060000                    
      -0.503767       2.655961       3.899496      -0.120000                    
      -0.664227       1.163913       3.601325      -0.120000                    
      -1.173650       0.387955       4.817604      -0.120000                    
      -0.311828       0.635172       6.057447      -0.120000                    
      -0.151368       2.127219       6.355619      -0.120000                    
       0.358063       2.903178       5.139328      -0.120000                    
      -1.489181       3.084428       4.069988       0.060000                    
      -0.027981       3.132146       3.044783       0.060000                    
      -1.379055       1.046438       2.789670       0.060000                    
       0.304197       0.760928       3.312516       0.060000                    
      -2.191343       0.707073       5.032329       0.060000                    
      -1.152437      -0.674865       4.585800       0.060000                    
       0.673585       0.206709       5.886946       0.060000                    
      -0.787605       0.158982       6.912158       0.060000                    
      -1.119783       2.530200       6.644424       0.060000                    
       0.563468       2.244690       7.167271       0.060000                    
       1.375757       2.584055       4.924612       0.060000                    
       0.336849       3.965998       5.371131       0.060000                    
      -4.901992       5.604414      -0.202901      -0.120000                    
      -6.428635       5.518265      -0.149198      -0.120000                    
      -6.975437       5.890179       1.230532      -0.120000                    
      -6.315964       5.077610       2.346695      -0.120000                    
      -4.789320       5.163758       2.292993      -0.120000                    
      -4.242515       4.791832       0.913257      -0.120000                    
      -4.608514       6.646400      -0.094276       0.060000                    
      -4.565310       5.215498      -1.161499       0.060000                    
      -6.841754       6.206140      -0.883896       0.060000                    
      -6.727538       4.497501      -0.378041       0.060000                    
      -6.781924       6.945917       1.408194       0.060000                    
      -8.045722       5.695197       1.244404       0.060000                    
      -6.609440       4.035618       2.238079       0.060000                    
      -6.652641       5.466508       3.305296       0.060000                    
      -4.490415       6.184510       2.521829       0.060000                    
      -4.376200       4.475879       3.027699       0.060000                    
      -4.436036       3.736098       0.735598       0.060000                    
      -3.172238       4.986818       0.899388       0.060000                    
      -4.245493      -7.321880      -0.461035      -0.120000                    
      -5.186582      -6.326816       0.220932      -0.120000                    
      -5.439984      -5.091492      -0.645564      -0.120000                    
      -4.136005      -4.430327      -1.096636      -0.120000                    
      -3.194930      -5.425396      -1.778604      -0.120000                    
      -2.941519      -6.660723      -0.912110      -0.120000                    
      -4.747406      -7.732508      -1.334606       0.060000                    
      -4.007218      -8.114826       0.244739       0.060000                    
      -6.137579      -6.820533       0.409068       0.060000                    
      -4.735255      -6.007546       1.157942       0.060000                    
      -5.999482      -5.394608      -1.527986       0.060000                    
      -6.012325      -4.371058      -0.064926       0.060000                    
      -3.634097      -4.019706      -0.223068       0.060000                    
      -4.374289      -3.637377      -1.802407       0.060000                    
      -3.646243      -5.744662      -2.715613       0.060000                    
      -2.243919      -4.931674      -1.966739       0.060000                    
      -2.382016      -6.357600      -0.029685       0.060000                    
      -2.369187      -7.381154      -1.492745       0.060000                    
       3.226305       3.515268      -6.286367      -0.120000                    
       2.330669       4.309402      -5.333431      -0.120000                    
       1.810782       3.445875      -4.182302      -0.120000                    
       1.126728       2.172667      -4.684324      -0.120000                    
       2.022365       1.378528      -5.637252      -0.120000                    
       2.542261       2.242051      -6.788383      -0.120000                    
       4.135338       3.236202      -5.757710       0.060000                    
       3.465184       4.142332      -7.142690       0.060000                    
       2.908583       5.131925      -4.917486       0.060000                    
       1.479625       4.691355      -5.893350       0.060000                    
       2.651562       3.163546      -3.552245       0.060000                    
       1.089175       4.026025      -3.610956       0.060000                    
       0.217705       2.451725      -5.212976       0.060000                    
       0.887858       1.545599      -3.828004       0.060000                    
       2.873408       0.996580      -5.077342       0.060000                    
       1.444454       0.555998      -6.053211       0.060000                    
       1.701472       2.524384      -7.418438       0.060000                    
       3.263867       1.661901      -7.359729       0.060000                    
       2.275840      -8.708245       0.048764      -0.120000                    
       1.199983      -7.637801       0.242552      -0.120000                    
       0.388184      -7.403615      -1.033050      -0.120000                    
       1.284652      -7.103921      -2.236190      -0.120000                    
       2.360514      -8.174356      -2.429976      -0.120000                    
       3.172313      -8.408543      -1.154374      -0.120000                    
       1.787393      -9.667027      -0.111906       0.060000                    
       2.894665      -8.745100       0.942759       0.060000                    
       0.523703      -7.963126       1.030177       0.060000                    
       1.684320      -6.704707       0.522588       0.060000                    
      -0.191235      -8.299494      -1.245820       0.060000                    
      -0.273897      -6.555250      -0.872944       0.060000                    
       1.773104      -6.145130      -2.075518       0.060000                    
       0.665826      -7.067061      -3.130195       0.060000                    
       1.876168      -9.107443      -2.710018       0.060000                    
       3.036789      -7.849040      -3.217605       0.060000                    
       3.751731      -7.512660      -0.941613       0.060000                    
       3.834389      -9.256916      -1.314482       0.060000                    
      -8.535761       3.490421      -4.755711      -0.120000                    
      -7.986675       4.658673      -3.934393      -0.120000                    
      -6.475031       4.550766      -3.723932      -0.120000                    
      -6.073446       3.197111      -3.134588      -0.120000                    
      -6.622532       2.028860      -3.955905      -0.120000                    
      -8.134179       2.136775      -4.166351      -0.120000                    
      -8.140655       3.560297      -5.766987       0.060000                    
      -9.621675       3.555157      -4.769556       0.060000                    
      -8.198792       5.585471      -4.463166       0.060000                    
      -8.473960       4.659183      -2.961640       0.060000                    
      -5.980621       4.671806      -4.685448       0.060000                    
      -6.162732       5.335143      -3.037684       0.060000                    
      -6.468552       3.127231      -2.123302       0.060000                    
      -4.987536       3.132387      -3.120737       0.060000                    
      -6.135248       2.028350      -4.928658       0.060000                    
      -6.410425       1.102066      -3.427130       0.060000                    
      -8.628590       2.015739      -3.204845       0.060000                    
      -8.446475       1.352389      -4.852615       0.060000                    
       6.036512      -4.225715      -3.476814      -0.120000                    
       7.191492      -4.684402      -2.584338      -0.120000                    
       8.017190      -5.793023      -3.240214      -0.120000                    
       7.144785      -6.964495      -3.695800      -0.120000                    
       5.989818      -6.505804      -4.588275      -0.120000                    
       5.164107      -5.397187      -3.932400      -0.120000                    
       6.449828      -3.737253      -4.356752       0.060000                    
       5.417828      -3.529583      -2.914478       0.060000                    
       7.841867      -3.833605      -2.392658       0.060000                    
       6.780428      -5.063035      -1.650900       0.060000                    
       8.525987      -5.380111      -4.108697       0.060000                    
       8.742516      -6.160319      -2.517248       0.060000                    
       6.731474      -7.452949      -2.815858       0.060000                    
       7.763469      -7.660627      -4.258136       0.060000                    
       6.400877      -6.127180      -5.521716       0.060000                    
       5.339428      -7.356605      -4.779956       0.060000                    
       4.655315      -5.810091      -3.063914       0.060000                    
       4.438780      -5.029890      -4.655365       0.060000                    
      10.696527      -0.516106       1.006078      -0.120000                    
      10.895417      -1.947212       1.509271      -0.120000                    
       9.582788      -2.576776       1.980088      -0.120000                    
       8.864171      -1.702054       3.009357      -0.120000                    
       8.665285      -0.270941       2.506167      -0.120000                    
       9.977914       0.358623       2.035351      -0.120000                    
      10.098389      -0.546864       0.097807       0.060000                    
      11.672257      -0.080958       0.800745       0.060000                    
      11.297743      -2.548643       0.696879       0.060000                    
      11.591397      -1.928275       2.345273       0.060000                    
       8.930999      -2.706913       1.118755       0.060000                    
       9.802925      -3.539981       2.435577       0.060000                    
       9.462321      -1.671292       3.917629       0.060000                    
       7.888443      -2.137190       3.214684       0.060000                    
       7.969299      -0.289886       1.670163       0.060000                    
       8.262967       0.330486       3.318556       0.060000                    
      10.629698       0.488753       2.896680       0.060000                    
       9.757776       1.321832       1.579852       0.060000                    
       0.870543      -2.751934       7.692408      -0.120000                    
       1.202220      -3.792545       8.763882      -0.120000                    
       2.323727      -4.734204       8.320546      -0.120000                    
       2.027441      -5.380818       6.965895      -0.120000                    
       1.695778      -4.340208       5.894431      -0.120000                    
       0.574285      -3.398569       6.337733      -0.120000                    
       1.722530      -2.084677       7.580209       0.060000                    
      -0.007097      -2.193135       8.010290       0.060000                    
       1.520014      -3.273825       9.665782       0.060000                    
       0.310498      -4.383301       8.962670       0.060000                    
       3.245720      -4.162502       8.238688       0.060000                    
       2.432064      -5.520390       9.064779       0.060000                    
       1.175480      -6.048088       7.078085       0.060000                    
       2.905102      -5.939638       6.648001       0.060000                    
       2.587511      -3.749464       5.695624       0.060000                    
       1.377996      -4.858940       4.992512       0.060000                    
      -0.347702      -3.970267       6.419603       0.060000                    
       0.465946      -2.612375       5.593515       0.060000                    
      -7.389571      -3.083646      -3.562616      -0.120000                    
      -7.696886      -1.815914      -2.763091      -0.120000                    
      -9.201674      -1.575496      -2.625969      -0.120000                    
      -9.909420      -1.583257      -3.982437      -0.120000                    
      -9.602112      -2.850998      -4.781965      -0.120000                    
      -8.097320      -3.091404      -4.919092      -0.120000                    
      -7.725615      -3.945708      -2.990233       0.060000                    
      -6.316032      -3.137271      -3.730298       0.060000                    
      -7.269387      -1.920159      -1.768141       0.060000                    
      -7.254274      -0.965064      -3.276744       0.060000                    
      -9.625003      -2.364813      -2.008419       0.060000                    
      -9.357568      -0.605737      -2.158031       0.060000                    
      -9.573382      -0.721204      -4.554823       0.060000                    
     -10.982960      -1.529633      -3.814755       0.060000                    
     -10.044724      -3.701843      -4.268321       0.060000                    
     -10.029606      -2.746745      -5.776912       0.060000                    
      -7.673989      -2.302091      -5.536634       0.060000                    
      -7.941425      -4.061167      -5.387022       0.060000                    
       4.602005      11.866153      -0.592425      -0.120000                    
       5.859753      12.010278      -1.451637      -0.120000                    
       5.580791      11.723865      -2.928519      -0.120000                    