%nprocshared=4                                                                       
%mem=8GB                                                                             
#P pop=chelpg cam-b3lyp/gen scf=qc int=ultrafine charge td(nstates=10)               
                                                                                     
pNA CAM-B3LYP def2-TZVPD Single point - solvent def2-SV(P)                           
                                                                                     
0 1                                                                                  
 C       1.386341       0.000000       0.000000                                 
 C       0.000000       0.000000       0.000000                                 
 C      -0.712907       1.188984      -0.000000                                 
 C      -0.035635       2.384357       0.000131                                 
 C       1.365534       2.410943       0.000833                                 
 C       2.063239       1.195576       0.000133                                 
 H       1.918972      -0.938700       0.000854                                 
 H      -1.791888       1.163049       0.000837                                 
 H      -0.586620       3.315732      -0.002113                                 
 H       3.145392       1.202000      -0.002090                                 
 N      -0.713906      -1.260429       0.001744                                 
 O      -1.931758      -1.232720       0.002551                                 
 O      -0.063858      -2.290656       0.002518                                 
 N       2.037885       3.598040      -0.033161                                 
 H       1.540331       4.445798       0.174764                                 
 H       3.020819       3.607257       0.174736                                 
 C      -3.966856       2.191430       2.481711                                 
 C      -3.314536       3.262887       1.605790                                 
 C      -4.339827       4.257918       1.058354                                 
 C      -5.493925       3.555278       0.340456                                 
 C      -6.146251       2.483828       1.216379                                 
 C      -5.120954       1.488790       1.763813                                 
 H      -4.354145       2.665834       3.380947                                 
 H      -3.215042       1.448933       2.740718                                 
 H      -2.587732       3.807021       2.205239                                 
 H      -2.822263       2.774383       0.767510                                 
 H      -4.745046       4.831944       1.888961                                 
 H      -3.840955       4.917666       0.351553                                 
 H      -5.106636       3.080874      -0.558780                                 
 H      -6.245739       4.297775       0.081449                                 
 H      -6.638525       2.972332       2.054659                                 
 H      -6.873048       1.939687       0.616928                                 
 H      -4.715740       0.914760       0.933199                                 
 H      -5.619825       0.829041       2.470614                                 
 C      -1.285914       6.821248      -3.736137                                 
 C      -1.478412       6.129255      -2.385224                                 
 C      -0.155135       5.954041      -1.637358                                 
 C       0.899803       5.252691      -2.495358                                 
 C       1.092306       5.944691      -3.846278                                 
 C      -0.230969       6.119892      -4.594139                                 
 H      -0.965288       7.845780      -3.559452                                 
 H      -2.233169       6.809248      -4.271057                                 
 H      -2.144604       6.735954      -1.775582                                 
 H      -1.913571       5.146937      -2.556607                                 
 H       0.219936       6.936748      -1.359482                                 
 H      -0.335272       5.353607      -0.748106                                 
 H       0.579177       4.228159      -2.672044                                 
 H       1.847059       5.264691      -1.960438                                 
 H       1.527468       6.926995      -3.674889                                 
 H       1.758500       5.337978      -4.455914                                 
 H      -0.606035       5.137191      -4.872022                                 
 H      -0.050839       6.720333      -5.483388                                 
 C       0.088956       5.260480       3.621517                                 
 C       0.873565       3.948069       3.675143                                 
 C       2.265303       4.136830       4.282160                                 
 C       3.051255       5.246147       3.580287                                 
 C       2.266645       6.558558       3.526661                                 
 C       0.874909       6.369797       2.919645                                 
 H      -0.127249       5.578170       4.639349                                 
 H      -0.836087       5.090454       3.074782                                 
 H       0.321180       3.237458       4.286283                                 
 H       0.984877       3.567863       2.661888                                 
 H       2.153966       4.400304       5.331823                                 
 H       2.816907       3.204210       4.183691                                 
 H       3.267453       4.928464       2.562457                                 
 H       3.976297       5.416184       4.127031                                 
 H       2.155334       6.938765       4.539917                                 
 H       2.819036       7.269174       2.915529                                 
 H       0.986237       6.106330       1.869983                                 
 H       0.323297       7.302424       3.018115                                 
 C      -4.723881      -1.121393      -2.380685                                 
 C      -5.055001      -2.585460      -2.676916                                 
 C      -6.496611      -2.760850      -3.158592                                 
 C      -7.503734      -2.129030      -2.195532                                 
 C      -7.172609      -0.664957      -1.899307                                 
 C      -5.731004      -0.489573      -1.417624                                 
 H      -4.740667      -0.565089      -3.315516                                 
 H      -3.734724      -1.072865      -1.930401                                 
 H      -4.382842      -2.943654      -3.453796                                 
 H      -4.920269      -3.163748      -1.765268                                 
 H      -6.598798      -2.283621      -4.130912                                 
 H      -6.710166      -3.824839      -3.236186                                 
 H      -7.486944      -2.685328      -1.260708                                 
 H      -8.492890      -2.177559      -2.645815                                 
 H      -7.307345      -0.086675      -2.810948                                 
 H      -7.844772      -0.306769      -1.122421                                 
 H      -5.628818      -0.966802      -0.445304                                 
 H      -5.517448       0.574415      -1.340030                                 
 C       9.342278       0.464601       2.074891                                 
 C       9.019785       1.759719       1.326814                                 
 C       7.514346       1.947046       1.128001                                 
 C       6.867072       0.727753       0.468188                                 
 C       7.189562      -0.567353       1.216259                                 
 C       8.694990      -0.754689       1.415072                                 
 H       8.967913       0.548654       3.092954                                 
 H      10.421240       0.325383       2.079880                                 
 H       9.401331       2.599043       1.904348                                 
 H       9.497846       1.725381       0.350116                                 
 H       7.051923       2.102617       2.100427                                 
 H       7.353077       2.813856       0.490542                                 
 H       7.241424       0.643703      -0.549880                                 
 H       5.788103       0.866979       0.463201                                 
 H       6.711502      -0.533014       2.192958                                 
 H       6.808016      -1.406676       0.638725                                 
 H       9.157419      -0.910256       0.442653                                 
 H       8.856265      -1.621495       2.052539                                 
 C      -0.757642      -1.254421      -4.695962                                 
 C      -0.766579      -0.435936      -3.403348                                 
 C      -0.906205       1.063249      -3.675267                                 
 C       0.146173       1.566799      -4.665158                                 
 C       0.155114       0.748321      -5.957778                                 
 C       0.294734      -0.750869      -5.685867                                 
 H      -1.737762      -1.178842      -5.162156                                 
 H      -0.535768      -2.290628      -4.449848                                 
 H      -1.607730      -0.758440      -2.793423                                 
 H       0.169567      -0.607973      -2.876374                                 
 H      -1.893475       1.250517      -4.092197                                 
 H      -0.785131       1.599595      -2.736451                                 
 H       1.126291       1.491222      -4.198978                                 
 H      -0.075702       2.603009      -4.911286                                 
 H      -0.781032       0.920357      -6.484754                                 
 H       0.996260       1.070820      -6.567711                                 
 H       1.282017      -0.938140      -5.268931                                 
 H       0.173673      -1.287218      -6.624677                                 
                                                                                
      -4.748814      -1.829029       2.428245      -0.120000                    
      -4.690998      -3.133957       1.631554      -0.120000                    
      -5.492442      -4.251197       2.302734      -0.120000                    
      -5.082975      -4.452723       3.763113      -0.120000                    
      -5.140791      -3.147794       4.559803      -0.120000                    
      -4.339352      -2.030560       3.888630      -0.120000                    
      -5.768485      -1.450626       2.402142       0.060000                    
      -4.068710      -1.112787       1.972167       0.060000                    
      -5.105158      -2.955535       0.641501       0.060000                    
      -3.652417      -3.448884       1.554991       0.060000                    
      -6.547943      -3.989484       2.270522       0.060000                    
      -5.316897      -5.178439       1.761353       0.060000                    
      -4.063309      -4.831131       3.789223       0.060000                    
      -5.763084      -5.168970       4.219198       0.060000                    
      -6.179377      -2.832873       4.636374       0.060000                    
      -4.726629      -3.326218       5.549871       0.060000                    
      -3.283841      -2.292263       3.920843       0.060000                    
      -4.514896      -1.103318       4.430011       0.060000                    
       2.470642      -3.661778       3.408883      -0.120000                    
       0.949734      -3.743304       3.554037      -0.120000                    
       0.426722      -5.161692       3.318215      -0.120000                    
       0.906593      -5.735112       1.983317      -0.120000                    
       2.427502      -5.653585       1.838162      -0.120000                    
       2.950514      -4.235199       2.073998      -0.120000                    
       2.927925      -4.230325       4.215948       0.060000                    
       2.769920      -2.617420       3.466335       0.060000                    
       0.679731      -3.436336       4.562257       0.060000                    
       0.494521      -3.078830       2.822628       0.060000                    
       0.785448      -5.802489       4.120928       0.060000                    
      -0.660948      -5.134983       3.314221       0.060000                    
       0.449310      -5.166564       1.176251       0.060000                    
       0.607311      -6.779475       1.925871       0.060000                    
       2.882714      -6.318059       2.569571       0.060000                    
       2.697509      -5.960550       0.829949       0.060000                    
       2.591783      -3.594406       1.271278       0.060000                    
       4.038184      -4.261909       2.077992       0.060000                    
       4.325350       2.619218      -5.501983      -0.120000                    
       4.321108       1.095887      -5.359343      -0.120000                    
       4.326146       0.657575      -3.893436      -0.120000                    
       5.467599       1.303780      -3.105750      -0.120000                    
       5.471847       2.827105      -3.248392      -0.120000                    
       5.466810       3.265417      -4.714298      -0.120000                    
       3.380690       3.006304      -5.125896       0.060000                    
       4.443649       2.869570      -6.554101       0.060000                    
       3.424988       0.704512      -5.836165       0.060000                    
       5.210544       0.698814      -5.843957       0.060000                    
       3.381531       0.950075      -3.439855       0.060000                    
       4.444914      -0.423224      -3.854165       0.060000                    
       6.412266       0.916687      -3.481838       0.060000                    
       5.349307       1.053421      -2.053634       0.060000                    
       4.582408       3.224171      -2.763771       0.060000                    
       6.367961       3.218487      -2.771568       0.060000                    
       6.411418       2.972913      -5.167886       0.060000                    
       5.348036       4.346211      -4.753576       0.060000                    
       5.483675       6.224182      -0.058258      -0.120000                    
       6.005449       7.119291       1.067533      -0.120000                    
       5.966806       8.600628       0.686515      -0.120000                    
       6.682398       8.870584      -0.638648      -0.120000                    
       6.160613       7.975477      -1.764431      -0.120000                    
       6.199259       6.494146      -1.383420      -0.120000                    
       4.421175       6.416677      -0.191395       0.060000                    
       5.646999       5.185133       0.219660       0.060000                    
       5.382850       6.970228       1.947136       0.060000                    
       7.035333       6.842469       1.282851       0.060000                    
       4.927626       8.907636       0.589317       0.060000                    
       6.457938       9.174013       1.469933       0.060000                    
       7.744897       8.678089      -0.505512       0.060000                    
       6.519062       9.909636      -0.916557       0.060000                    
       5.130733       8.252305      -1.979757       0.060000                    
       6.783216       8.124546      -2.644041       0.060000                    
       7.238446       6.187131      -1.286224       0.060000                    
       5.708135       5.920754      -2.166839       0.060000                    
       0.066502      -4.985258      -2.742340      -0.120000                    
      -1.437728      -4.705735      -2.734657      -0.120000                    
      -2.195902      -5.674009      -1.824350      -0.120000                    
      -1.886130      -7.135011      -2.156760      -0.120000                    
      -0.381888      -7.414536      -2.164438      -0.120000                    
       0.376281      -6.446266      -3.074752      -0.120000                    
       0.466920      -4.760717      -1.755966       0.060000                    
       0.534166      -4.351305      -3.492711       0.060000                    
      -1.601084      -3.691610      -2.376387       0.060000                    
      -1.816516      -4.813293      -3.748869       0.060000                    
      -1.904572      -5.482616      -0.793743       0.060000                    
      -3.263437      -5.507298      -1.951851       0.060000                    
      -2.286541      -7.359558      -3.143136       0.060000                    
      -2.353781      -7.768966      -1.406384       0.060000                    
      -0.003112      -7.306975      -1.150231       0.060000                    
      -0.218544      -8.428658      -2.522713       0.060000                    
       0.084951      -6.637659      -4.105359       0.060000                    
       1.443816      -6.612978      -2.947251       0.060000                    
      -0.955746      -0.738777       4.489085      -0.120000                    
       0.338423      -0.032535       4.080062      -0.120000                    
       1.290429       0.150085       5.263864      -0.120000                    
       0.608954       0.841999       6.446173      -0.120000                    
      -0.685208       0.135750       6.855194      -0.120000                    
      -1.637221      -0.046863       5.671394      -0.120000                    
      -0.718504      -1.761510       4.774453       0.060000                    
      -1.638239      -0.732089       3.641866       0.060000                    
       0.837367      -0.632554       3.322027       0.060000                    
       0.088122       0.948075       3.680748       0.060000                    
       1.635957      -0.829789       5.586516       0.060000                    
       2.132097       0.759905       4.942219       0.060000                    
       0.371712       1.864732       6.160804       0.060000                    
       1.291447       0.835311       7.293392       0.060000                    
      -0.434913      -0.844853       7.254509       0.060000                    
      -1.184152       0.735770       7.613229       0.060000                    
      -1.982749       0.933011       5.348742       0.060000                    
      -2.478889      -0.656682       5.993039       0.060000                    
       5.601358      -3.116965      -3.511688      -0.120000                    
       6.337678      -4.326361      -4.091411      -0.120000                    
       5.410728      -5.530596      -4.269049      -0.120000                    
       4.667332      -5.877314      -2.977464      -0.120000                    
       3.931007      -4.667923      -2.397733      -0.120000                    
       4.857962      -3.463683      -2.220103      -0.120000                    
       4.878706      -2.765508      -4.245102       0.060000                    
       6.329051      -2.337688      -3.295487       0.060000                    
       6.743231      -4.053423      -5.063346       0.060000                    
       7.140797      -4.603126      -3.411649       0.060000                    
       4.678933      -5.295469      -5.039003       0.060000                    
       6.009188      -6.389041      -4.566873       0.060000                    
       5.389979      -6.228776      -2.244042       0.060000                    
       3.939634      -6.656596      -3.193657       0.060000                    
       3.127893      -4.391153      -3.077503       0.060000                    
       3.525455      -4.940862      -1.425799       0.060000                    
       5.589746      -3.698820      -1.450149       0.060000                    
       4.259495      -2.605230      -1.922277       0.060000                    
       6.308095      -0.275124       6.853050      -0.120000                    
       6.319128      -1.793270       6.663443      -0.120000                    
       6.333477      -2.186021       5.184737      -0.120000                    
       5.199647      -1.519079       4.403363      -0.120000                    
       5.188618      -0.000926       4.592962      -0.120000                    
       5.174263       0.391831       6.071670      -0.120000                    
       7.256007       0.126165       6.500788       0.060000                    
       6.176107      -0.057772       7.910861       0.060000                    
       7.210602      -2.196606       7.138971       0.060000                    
       5.425109      -2.207754       7.124551       0.060000                    
       7.282641      -1.876890       4.752099       0.060000                    
       6.218752      -3.265419       5.110616       0.060000                    
       4.251723      -1.920365       4.755619       0.060000                    
       5.331632      -1.736418       3.345547       0.060000                    
       6.082625       0.413558       4.131863       0.060000                    
       4.297133       0.402410       4.117443       0.060000                    
       4.225104       0.082693       6.504306       0.060000                    
       5.288983       1.471222       6.145797       0.060000                    
      -4.057584       4.244152      -4.909759      -0.120000                    
      -4.105581       3.679015      -6.330747      -0.120000                    
      -5.520680       3.258411      -6.732726      -0.120000                    
      -6.145705       2.302700      -5.714434      -0.120000                    
      -6.097717       2.867843      -4.293446      -0.120000                    
      -4.682621       3.288441      -3.891459      -0.120000                    
      -4.608398       5.182180      -4.889832       0.060000                    
      -3.017731       4.411318      -4.636979       0.060000                    
      -3.761289       4.445672      -7.021654       0.060000                    
      -3.456502       2.807307      -6.380373       0.060000                    
      -6.141976       4.148925      -6.800698       0.060000                    
      -5.473520       2.756737      -7.696991       0.060000                    
      -5.594904       1.364673      -5.734354       0.060000                    
      -7.185566       2.135540      -5.987213       0.060000                    
      -6.746799       3.739546      -4.243812       0.060000                    
      -6.441996       2.101184      -3.602532       0.060000                    
      -4.061322       2.397934      -3.823494       0.060000                    
      -4.729769       3.790115      -2.927203       0.060000                    
      -1.642095      10.734977       1.102332      -0.120000                    
      -2.550250       9.974201       0.134160      -0.120000                    
      -3.640610       9.190228       0.867282      -0.120000                    
      -3.060699       8.275348       1.947870      -0.120000                    
      -2.152541       9.036113       2.916033      -0.120000                    
      -1.062183       9.820097       2.182920      -0.120000                    
      -2.225311      11.516516       1.584748       0.060000                    
      -0.820306      11.171103       0.538299       0.060000                    
      -3.025702      10.690696      -0.532372       0.060000                    
      -1.942426       9.274518      -0.435644       0.060000                    
      -4.320175       9.897313       1.338313       0.060000                    
      -4.174959       8.578213       0.143639       0.060000                    
      -2.477488       7.493804       1.465447       0.060000                    
      -3.882480       7.839215       2.511901       0.060000                    
      -2.760366       9.735795       3.485837       0.060000                    
      -1.677098       8.319625       3.582567       0.060000                    
      -0.382624       9.113008       1.711881       0.060000                    
      -0.527840      10.432108       2.906555       0.060000                    
       1.203903      10.916965      -4.835520      -0.120000                    
       1.833663      12.008560      -3.967938      -0.120000                    
       1.852009      11.624244      -2.487047      -0.120000                    
       0.465309      11.219925      -1.982481      -0.120000                    
      -0.164450      10.128330      -2.850063      -0.120000                    
      -0.182800      10.512640      -4.330946      -0.120000                    
       1.849746      10.041623      -4.816170       0.060000                    
       1.108048      11.292772      -5.851966       0.060000                    
       2.857834      12.167768      -4.298491       0.060000                    
       1.253712      12.921865      -4.082921       0.060000                    
       2.529126      10.783056      -2.354534       0.060000                    
       2.195997      12.480067      -1.910054       0.060000                    
      -0.180544      12.095257      -2.001831       0.060000                    
       0.561155      10.844110      -0.966036       0.060000                    
       0.415501       9.215025      -2.735081       0.060000                    
      -1.188621       9.969122      -2.519509       0.060000                    
      -0.859913      11.353834      -4.463467       0.060000                    
      -0.526784       9.656822      -4.907947       0.060000                    
       3.549369      11.611497       0.920301      -0.120000                    
       3.451307      10.865664       2.252609      -0.120000                    
       2.851805      11.739831       3.355965      -0.120000                    
       3.591565      13.071580       3.497811      -0.120000                    
       3.689627      13.817414       2.165503      -0.120000                    
       4.289136      12.943239       1.062145      -0.120000                    
       2.542872      11.809760       0.557921       0.060000                    
       4.089529      10.987511       0.211456       0.060000                    
       2.815960       9.993031       2.116642       0.060000                    
       4.451056      10.561118       2.555006       0.060000                    
       1.811682      11.944250       3.111014       0.060000                    
       2.918631      11.202815       4.299809       0.060000                    
       4.598069      12.873310       3.860189       0.060000                    
       3.051412      13.695560       4.206655       0.060000                    
       2.689885      14.121952       1.863105       0.060000                    
       4.324981      14.690040       2.301468       0.060000                    
       5.329253      12.738827       1.307098       0.060000                    
       4.222321      13.480266       0.118302       0.060000                    
       5.901963       8.331907       4.800951      -0.120000                    
       5.120424       9.190573       5.797329      -0.120000                    
       6.045214       9.922037       6.772375      -0.120000                    
       7.010596       8.964883       7.474424      -0.120000                    
       7.792141       8.106212       6.478045      -0.120000                    
       6.867345       7.374754       5.503001      -0.120000                    
       6.475471       8.989029       4.150575       0.060000                    
       5.194978       7.746361       4.217092       0.060000                    
       4.545055       9.929254       5.243371       0.060000                    
       4.455888       8.544322       6.366920       0.060000                    
       6.625585      10.655807       6.217042       0.060000                    
       5.435328      10.415476       7.526180       0.060000                    
       6.437095       8.307756       8.124800       0.060000                    
       7.717587       9.550423       8.058282       0.060000                    
       8.456677       8.752462       5.908453       0.060000                    
       8.367511       7.367531       7.032002       0.060000                    
       6.286981       6.640978       6.058331       0.060000                    
       7.477239       6.881308       4.749193       0.060000                    
       8.528177      -5.208822       2.771988      -0.120000                    
       8.883838      -5.159299       1.284740      -0.120000                    
       7.665528      -5.415409       0.395298      -0.120000                    