%nprocshared=4                                                                       
%mem=8GB                                                                             
#P pop=chelpg cam-b3lyp/gen scf=qc int=ultrafine charge td(nstates=10)               
                                                                                     
pNA CAM-B3LYP def2-TZVPD Single point - solvent def2-SV(P)                           
                                                                                     
0 1                                                                                  
 C       1.386341       0.000000       0.000000                                 
 C       0.000000       0.000000       0.000000                                 
 C      -0.712907       1.188984      -0.000000                                 
 C      -0.035635       2.384357       0.000131                                 
 C       1.365534       2.410943       0.000833                                 
 C       2.063239       1.195576       0.000133                                 
 H       1.918972      -0.938700       0.000854                                 
 H      -1.791888       1.163049       0.000837                                 
 H      -0.586620       3.315732      -0.002113                                 
 H       3.145392       1.202000      -0.002090                                 
 N      -0.713906      -1.260429       0.001744                                 
 O      -1.931758      -1.232720       0.002551                                 
 O      -0.063858      -2.290656       0.002518                                 
 N       2.037885       3.598040      -0.033161                                 
 H       1.540331       4.445798       0.174764                                 
 H       3.020819       3.607257       0.174736                                 
 C       5.582905       6.099458       0.713456                                 
 C       6.151259       7.358710       0.056058                                 
 C       5.628833       8.635874       0.717048                                 
 C       4.100475       8.663589       0.782579                                 
 C       3.532112       7.404342       1.439977                                 
 C       4.054541       6.127185       0.778995                                 
 H       5.973119       6.029810       1.726653                                 
 H       5.890265       5.233907       0.130422                                 
 H       7.235272       7.338974       0.146220                                 
 H       5.859830       7.365497      -0.992118                                 
 H       6.021300       8.688502       1.730381                                 
 H       5.967449       9.491369       0.136374                                 
 H       3.710261       8.733237      -0.230618                                 
 H       3.793118       9.529146       1.365620                                 
 H       3.823553       7.397557       2.488161                                 
 H       2.448111       7.424080       1.349823                                 
 H       3.662081       6.074546      -0.234345                                 
 H       3.715922       5.271683       1.359661                                 
 C       6.419710      -1.104197      -2.434897                                 
 C       5.430033      -2.162812      -2.925499                                 
 C       4.313159      -1.553157      -3.775181                                 
 C       3.609652      -0.400547      -3.055769                                 
 C       4.599336       0.658057      -2.565160                                 
 C       5.716203       0.048414      -1.715485                                 
 H       6.954258      -0.703473      -3.293575                                 
 H       7.115571      -1.573133      -1.742467                                 
 H       5.969178      -2.889483      -3.529570                                 
 H       4.983159      -2.648423      -2.060537                                 
 H       4.746175      -1.174127      -4.698466                                 
 H       3.579677      -2.326874      -3.992190                                 
 H       3.075102      -0.801278      -2.197084                                 
 H       2.913789       0.068383      -3.748206                                 
 H       5.046203       1.143679      -3.430129                                 
 H       4.060185       1.384739      -1.961096                                 
 H       5.283185      -0.330623      -0.792207                                 
 H       6.449686       0.822130      -1.498476                                 
 C       3.176869       4.577540       6.011012                                 
 C       4.130073       3.656599       5.246709                                 
 C       3.834625       3.644551       3.745510                                 
 C       2.368005       3.321892       3.452418                                 
 C       1.414793       4.242839       4.216721                                 
 C       1.710240       4.254887       5.717921                                 
 H       3.372943       5.605385       5.713099                                 
 H       3.353789       4.453420       7.077249                                 
 H       5.148605       4.007797       5.397760                                 
 H       4.018858       2.644865       5.631042                                 
 H       4.062468       4.627391       3.338427                                 
 H       4.457983       2.887313       3.274600                                 
 H       2.171919       2.294045       3.750339                                 
 H       2.191085       3.446013       2.386182                                 
 H       1.526016       5.254569       3.832389                                 
 H       0.396270       3.891636       4.065670                                 
 H       1.482407       3.272042       6.125003                                 
 H       1.086892       5.012120       6.188830                                 
 C      -5.503304       2.898126       0.131784                                 
 C      -6.869886       2.396424      -0.338979                                 
 C      -6.759938       1.091306      -1.129935                                 
 C      -5.761641       1.202764      -2.284055                                 
 C      -4.395051       1.704462      -1.813292                                 
 C      -4.505007       3.009585      -1.022351                                 
 H      -5.109677       2.197816       0.865512                                 
 H      -5.629186       3.881947       0.578802                                 
 H      -7.495888       2.222418       0.533651                                 
 H      -7.316902       3.154203      -0.979007                                 
 H      -6.426926       0.303946      -0.457010                                 
 H      -7.738604       0.849182      -1.538965                                 
 H      -6.155272       1.903069      -3.017790                                 
 H      -5.635753       0.218933      -2.731081                                 
 H      -3.948037       0.946677      -1.173271                                 
 H      -3.769051       1.878462      -2.685929                                 
 H      -4.838010       3.796941      -1.695261                                 
 H      -3.526333       3.251705      -0.613321                                 
 C       5.595992      -2.404661       3.467270                                 
 C       4.334155      -3.039283       2.879126                                 
 C       3.231005      -2.006282       2.640408                                 
 C       2.928757      -1.189265       3.898232                                 
 C       4.190605      -0.554641       4.486369                                 
 C       5.293740      -1.587650       4.725087                                 
 H       6.033613      -1.744921       2.721003                                 
 H       6.294991      -3.196881       3.726914                                 
 H       4.588665      -3.502203       1.928041                                 
 H       3.964231      -3.788141       3.576282                                 
 H       3.554638      -1.327375       1.854286                                 
 H       2.325267      -2.528275       2.338935                                 
 H       2.491136      -1.849005       4.644500                                 
 H       2.229767      -0.397050       3.638588                                 
 H       4.560530       0.194217       3.789214                                 
 H       3.936092      -0.091728       5.437462                                 
 H       4.970114      -2.266545       5.511210                                 
 H       6.199479      -1.065657       5.026560                                 
 C      -3.272751      -1.621279       3.925579                                 
 C      -4.099037      -0.413935       3.477900                                 
 C      -3.222662       0.809101       3.200160                                 
 C      -2.313818       1.144026       4.384573                                 
 C      -1.487535      -0.063324       4.832246                                 
 C      -2.363910      -1.286360       5.109985                                 
 H      -2.652825      -1.946449       3.092735                                 
 H      -3.952560      -2.416833       4.223072                                 
 H      -4.630365      -0.675351       2.565258                                 
 H      -4.804959      -0.163808       4.267067                                 
 H      -2.600382       0.601090       2.332334                                 
 H      -3.868612       1.662649       3.005416                                 
 H      -2.933743       1.469197       5.217417                                 
 H      -1.634008       1.939581       4.087067                                 
 H      -0.781613      -0.313450       4.043078                                 
 H      -0.956204       0.198099       5.744894                                 
 H      -2.986190      -1.078349       5.977811                                 
 H      -1.717957      -2.139901       5.304737                                 
                                                                                
       2.831754      -5.592948      -1.882326      -0.120000                    
       3.958957      -6.062298      -0.960367      -0.120000                    
       3.440222      -6.948716       0.173726      -0.120000                    
       2.305175      -6.279243       0.951218      -0.120000                    
       1.177970      -5.809901       0.029265      -0.120000                    
       1.696711      -4.923470      -1.104827      -0.120000                    
       2.430595      -6.456581      -2.408492       0.060000                    
       3.238535      -4.874746      -2.591041       0.060000                    
       4.674201      -6.633307      -1.548554       0.060000                    
       4.439798      -5.188212      -0.526271       0.060000                    
       3.068434      -7.877669      -0.253357       0.060000                    
       4.259982      -7.150422       0.860047       0.060000                    
       2.706337      -5.415605       1.477391       0.060000                    
       1.898394      -6.997446       1.659934       0.060000                    
       0.697131      -6.683981      -0.404823       0.060000                    
       0.462720      -5.238880       0.617446       0.060000                    
       2.068493      -3.994530      -0.677744       0.060000                    
       0.876948      -4.721771      -1.791140       0.060000                    
       1.424164       4.568187      -4.553928      -0.120000                    
       0.574969       4.807116      -5.804013      -0.120000                    
      -0.922626       4.705622      -5.507480      -0.120000                    
      -1.281817       3.390206      -4.813469      -0.120000                    
      -0.432628       3.151264      -3.563384      -0.120000                    
       1.064979       3.252759      -3.859910      -0.120000                    
       1.255014       5.386392      -3.857077       0.060000                    
       2.471345       4.532202      -4.846617       0.060000                    
       0.787471       5.804358      -6.183306       0.060000                    
       0.833548       4.057151      -6.548549       0.060000                    
      -1.204868       5.530474      -4.856639       0.060000                    
      -1.467743       4.762992      -6.447315       0.060000                    
      -1.112660       2.571989      -5.510313       0.060000                    
      -2.328989       3.426186      -4.520780       0.060000                    
      -0.691204       3.901234      -2.818841       0.060000                    
      -0.645130       2.154022      -3.184092       0.060000                    
       1.347222       2.427907      -4.510751       0.060000                    
       1.610100       3.195396      -2.920082       0.060000                    
      -0.318096      -1.990623      -4.174731      -0.120000                    
      -0.615916      -3.014473      -5.271976      -0.120000                    
      -1.346058      -2.385126      -6.460176      -0.120000                    
      -2.603108      -1.628942      -6.025457      -0.120000                    
      -2.305288      -0.605092      -4.928212      -0.120000                    
      -1.575160      -1.234448      -3.740012      -0.120000                    
       0.405026      -1.272729      -4.556050       0.060000                    
       0.088634      -2.513937      -3.312009       0.060000                    
       0.325559      -3.431164      -5.623526       0.060000                    
      -1.243309      -3.799105      -4.854372       0.060000                    
      -0.672469      -1.686295      -6.951632       0.060000                    
      -1.636743      -3.176208      -7.148184       0.060000                    
      -3.326233      -2.346842      -5.644145       0.060000                    
      -3.009850      -1.105630      -6.888186       0.060000                    
      -1.677901       0.179527      -5.345816       0.060000                    
      -3.246766      -0.188407      -4.576655       0.060000                    
      -2.248738      -1.933276      -3.248549       0.060000                    
      -1.284470      -0.443352      -3.052003       0.060000                    
      -3.592168       6.976661       1.198937      -0.120000                    
      -3.384157       7.603895       2.578874      -0.120000                    
      -2.729233       8.983693       2.488398      -0.120000                    
      -1.435305       8.951780       1.672484      -0.120000                    
      -1.643313       8.324553       0.292540      -0.120000                    
      -2.298240       6.944748       0.383022      -0.120000                    
      -4.330211       7.564636       0.657410       0.060000                    
      -3.945459       5.956148       1.330516       0.060000                    
      -4.353043       7.709929       3.062209       0.060000                    
      -2.739996       6.950995       3.164053       0.060000                    
      -3.425718       9.668390       2.009093       0.060000                    
      -2.497125       9.325018       3.495056       0.060000                    
      -0.697268       8.363816       2.214005       0.060000                    
      -1.082011       9.972300       1.540899       0.060000                    
      -2.287486       8.977450      -0.292631       0.060000                    
      -0.674436       8.218522      -0.190795       0.060000                    
      -1.601752       6.260057       0.862321       0.060000                    
      -2.530354       6.603434      -0.623642       0.060000                    
       0.173443      -4.175800       3.256471      -0.120000                    
       0.819644      -4.482658       4.608948      -0.120000                    
       0.884387      -5.986171       4.885182      -0.120000                    
      -0.483663      -6.655439       4.738644      -0.120000                    
      -1.129861      -6.348575       3.386175      -0.120000                    
      -1.194597      -4.845072       3.109933      -0.120000                    
       0.826529      -4.543275       2.467730       0.060000                    
       0.044885      -3.099071       3.168869       0.060000                    
       1.832444      -4.085303       4.608558       0.060000                    
       0.229343      -4.010534       5.391446       0.060000                    
       1.571761      -6.440865       4.174986       0.060000                    
       1.238332      -6.137705       5.902758       0.060000                    
      -1.136737      -6.287962       5.527393       0.060000                    
      -0.355092      -7.732166       4.826253       0.060000                    
      -0.539560      -6.820699       2.603678       0.060000                    
      -2.142652      -6.745934       3.386565       0.060000                    
      -1.881978      -4.390368       3.820136       0.060000                    
      -1.548540      -4.693532       2.092365       0.060000                    
      -6.517099      -2.908544      -2.417714      -0.120000                    
      -5.491225      -2.973422      -3.550971      -0.120000                    
      -4.686351      -4.274302      -3.521628      -0.120000                    
      -4.046088      -4.521617      -2.154183      -0.120000                    
      -5.071953      -4.456743      -1.020926      -0.120000                    
      -5.876839      -3.155866      -1.050261      -0.120000                    
      -7.274190      -3.670606      -2.590028       0.060000                    
      -6.970672      -1.919684      -2.415488       0.060000                    
      -6.018069      -2.911914      -4.500841       0.060000                    
      -4.803706      -2.136786      -3.445930       0.060000                    
      -5.355238      -5.102155      -3.747210       0.060000                    
      -3.897739      -4.212089      -4.268581       0.060000                    
      -3.288991      -3.759565      -1.981862       0.060000                    
      -3.592506      -5.510481      -2.156408       0.060000                    
      -5.759474      -5.293386      -1.125959       0.060000                    
      -4.545112      -4.518257      -0.071049       0.060000                    
      -5.207942      -2.328017      -0.824679       0.060000                    
      -6.665451      -3.218078      -0.303309       0.060000                    
       9.519168       0.716996       2.079477      -0.120000                    
       8.520755       1.714006       1.487858      -0.120000                    
       8.470636       3.017633       2.287251      -0.120000                    
       8.217874       2.768165       3.775485      -0.120000                    
       9.216281       1.771164       4.367111      -0.120000                    
       9.266404       0.467528       3.567712      -0.120000                    
      10.523416       1.118073       1.959838       0.060000                    
       9.424171      -0.227347       1.547620       0.060000                    
       8.821240       1.943122       0.467621       0.060000                    
       7.531116       1.262123       1.497285       0.060000                    
       9.424300       3.529614       2.177579       0.060000                    
       7.664118       3.634398       1.896246       0.060000                    
       7.213625       2.367088       3.895124       0.060000                    
       8.312870       3.712508       4.307342       0.060000                    
      10.205926       2.223037       4.357677       0.060000                    
       8.915801       1.542039       5.387341       0.060000                    
       8.312733      -0.044450       3.677383       0.060000                    
      10.072924      -0.149238       3.958716       0.060000                    
       5.671861       7.488952      -3.910266      -0.120000                    
       4.272885       7.913082      -3.458728      -0.120000                    
       3.743389       9.097445      -4.269876      -0.120000                    
       4.724046      10.271852      -4.276669      -0.120000                    
       6.123021       9.847723      -4.728207      -0.120000                    
       6.652521       8.663367      -3.917053      -0.120000                    
       5.604582       7.086400      -4.918770       0.060000                    
       6.043191       6.729945      -3.225024       0.060000                    
       3.595499       7.071821      -3.589092       0.060000                    
       4.318443       8.202036      -2.410828       0.060000                    
       3.583113       8.772385      -5.295672       0.060000                    
       2.806080       9.429733      -3.828558       0.060000                    
       4.791325      10.674406      -3.268166       0.060000                    
       4.352718      11.030867      -4.961919       0.060000                    
       6.077457       9.558780      -5.776101       0.060000                    
       6.800414      10.688997      -4.597843       0.060000                    
       6.812788       8.988430      -2.891255       0.060000                    
       7.589829       8.331078      -4.358370       0.060000                    
      -1.850811      -8.822841      -0.037841      -0.120000                    
      -2.568809     -10.173832      -0.024522      -0.120000                    
      -2.806350     -10.710562      -1.437513      -0.120000                    
      -3.521349      -9.690291      -2.325667      -0.120000                    
      -2.803349      -8.339293      -2.338979      -0.120000                    
      -2.565814      -7.802577      -0.925988      -0.120000                    
      -0.842188      -8.968883      -0.418666       0.060000                    
      -1.818107      -8.436448       0.978612       0.060000                    
      -1.955282     -10.888302       0.520203       0.060000                    
      -3.531553     -10.051105       0.467154       0.060000                    
      -1.843798     -10.947597      -1.885743       0.060000                    
      -3.421999     -11.605143      -1.370649       0.060000                    
      -4.529975      -9.544255      -1.944835       0.060000                    
      -3.554056     -10.076690      -3.342113       0.060000                    
      -1.840608      -8.462026      -2.830649       0.060000                    
      -3.416875      -7.624824      -2.883704       0.060000                    
      -3.528366      -7.565541      -0.477757       0.060000                    
      -1.950165      -6.907996      -0.992853       0.060000                    
      -9.492472      -1.830303       4.527642      -0.120000                    
      -8.865582      -3.225254       4.482431      -0.120000                    
      -7.535558      -3.231593       3.726108      -0.120000                    
      -7.666281      -2.616516       2.331263      -0.120000                    
      -8.293182      -1.221567       2.376466      -0.120000                    
      -9.623207      -1.215228       3.132790      -0.120000                    
      -8.860960      -1.184810       5.134428       0.060000                    
     -10.484548      -1.909005       4.967273       0.060000                    
      -8.687213      -3.559482       5.502213       0.060000                    
      -9.554867      -3.900045       3.979241       0.060000                    
      -6.809729      -2.653678       4.294284       0.060000                    
      -7.199795      -4.261203       3.621925       0.060000                    
      -8.297795      -3.262016       1.724470       0.060000                    
      -6.674218      -2.537817       1.891625       0.060000                    
      -7.603897      -0.546776       2.879656       0.060000                    
      -8.471551      -0.887339       1.356684       0.060000                    
     -10.349032      -1.793137       2.564606       0.060000                    
      -9.958966      -0.185612       3.236966       0.060000                    
      -6.101354       8.934125      -3.470963      -0.120000                    
      -5.238677       8.137879      -2.489825      -0.120000                    
      -5.092721       6.674512      -2.912060      -0.120000                    
      -6.449356       6.009247      -3.152809      -0.120000                    
      -7.312033       6.805492      -4.133947      -0.120000                    
      -7.458000       8.268857      -3.711705      -0.120000                    
      -5.574581       9.003053      -4.420415       0.060000                    
      -6.269228       9.927196      -3.059630       0.060000                    
      -4.249397       8.588956      -2.451395       0.060000                    
      -5.707116       8.171481      -1.508445       0.060000                    
      -4.517305       6.634539      -3.834520       0.060000                    
      -4.576111       6.134418      -2.121396       0.060000                    
      -6.976129       5.940320      -2.203357       0.060000                    
      -6.281481       5.016176      -3.564142       0.060000                    
      -6.843594       6.771891      -5.115326       0.060000                    
      -8.301320       6.354420      -4.172377       0.060000                    
      -8.033404       8.308832      -2.789253       0.060000                    
      -7.974598       8.808954      -4.502376       0.060000                    
       7.178137       3.401452      -5.094527      -0.120000                    
       8.134082       2.291567      -4.652653      -0.120000                    
       9.249965       2.821973      -3.750129      -0.120000                    
       9.992705       3.997953      -4.387647      -0.120000                    
       9.036761       5.107839      -4.829521      -0.120000                    
       7.920876       4.577426      -5.732038      -0.120000                    
       6.638256       3.763155      -4.221960       0.060000                    
       6.483633       2.991811      -5.824918       0.060000                    
       7.567625       1.543563      -4.102068       0.060000                    
       8.584440       1.847679      -5.537993       0.060000                    
       8.809923       3.155682      -2.812786       0.060000                    
       9.961235       2.018986      -3.568302       0.060000                    
      10.532587       3.636250      -5.260215       0.060000                    
      10.687204       4.407582      -3.657256       0.060000                    
       8.586397       5.551714      -3.944182       0.060000                    
       9.603215       5.855836      -5.380099       0.060000                    
       8.360913       4.243711      -6.669389       0.060000                    
       7.209604       5.380413      -5.913865       0.060000                    
       2.601110       9.276262       7.081302      -0.120000                    
       1.282011       9.557505       7.803609      -0.120000                    
       0.127125       8.734775       7.228839      -0.120000                    
      -0.001009       8.906860       5.713916      -0.120000                    
       1.318091       8.625619       4.991611      -0.120000                    
       2.472982       9.448339       5.566387      -0.120000                    
       2.900561       8.251477       7.290694       0.060000                    
       3.353300       9.971563       7.447774       0.060000                    
       1.400244       9.303625       8.854868       0.060000                    
       1.044336      10.613606       7.694890       0.060000                    
       0.307326       7.683941       7.445373       0.060000                    
      -0.799342       9.062708       7.695558       0.060000                    
      -0.300460       9.931646       5.504525       0.060000                    
      -0.753199       8.211561       5.347445       0.060000                    
       1.555763       7.569510       5.100336       0.060000                    
       1.199858       8.879498       3.940351       0.060000                    
       2.292773      10.499175       5.349853       0.060000                    
       3.399452       9.120412       5.099661       0.060000                    
      -4.509217       7.111602       6.794060      -0.120000                    
      -5.329480       6.003135       6.131227      -0.120000                    
      -4.831434       4.610111       6.521680      -0.120000                    