%nprocshared=4                                                                       
%mem=8GB                                                                             
#P pop=chelpg cam-b3lyp/gen scf=qc int=ultrafine charge td(nstates=10)               
                                                                                     
pNA CAM-B3LYP def2-TZVPD Single point - solvent def2-SV(P)                           
                                                                                     
0 1                                                                                  
 C       1.386341       0.000000       0.000000                                 
 C       0.000000       0.000000       0.000000                                 
 C      -0.712907       1.188984      -0.000000                                 
 C      -0.035635       2.384357       0.000131                                 
 C       1.365534       2.410943       0.000833                                 
 C       2.063239       1.195576       0.000133                                 
 H       1.918972      -0.938700       0.000854                                 
 H      -1.791888       1.163049       0.000837                                 
 H      -0.586620       3.315732      -0.002113                                 
 H       3.145392       1.202000      -0.002090                                 
 N      -0.713906      -1.260429       0.001744                                 
 O      -1.931758      -1.232720       0.002551                                 
 O      -0.063858      -2.290656       0.002518                                 
 N       2.037885       3.598040      -0.033161                                 
 H       1.540331       4.445798       0.174764                                 
 H       3.020819       3.607257       0.174736                                 
 C       1.103214       7.418713       2.742579                                 
 C       1.374027       6.882370       1.335492                                 
 C       0.156833       7.032803       0.420719                                 
 C      -1.102105       6.418175       1.035841                                 
 C      -1.372919       6.954518       2.442928                                 
 C      -0.155714       6.804085       3.357709                                 
 H       0.970738       8.497001       2.684140                                 
 H       1.953593       7.176805       3.376526                                 
 H       2.203546       7.439191       0.904828                                 
 H       1.625767       5.826436       1.408348                                 
 H      -0.021197       8.092487       0.250345                                 
 H       0.365209       6.529055      -0.520880                                 
 H      -0.969619       5.339886       1.094278                                 
 H      -1.952475       6.660082       0.401892                                 
 H      -1.624659       8.010444       2.370072                                 
 H      -2.202426       6.397696       2.873600                                 
 H       0.022316       5.744400       3.528073                                 
 H      -0.364101       7.307824       4.299300                                 
 C       4.072645      -2.253546       0.952506                                 
 C       2.919662      -3.159989       1.388299                                 
 C       3.134201      -3.724262       2.794209                                 
 C       4.491527      -4.416602       2.933118                                 
 C       5.644518      -3.510170       2.497325                                 
 C       5.429969      -2.945896       1.091416                                 
 H       4.070755      -1.363467       1.578125                                 
 H       3.926119      -1.981827      -0.090679                                 
 H       1.999778      -2.579135       1.383447                                 
 H       2.845840      -3.989532       0.688271                                 
 H       3.087025      -2.905076       3.508570                                 
 H       2.350764      -4.450464       3.000608                                 
 H       4.493415      -5.306691       2.307500                                 
 H       4.638052      -4.688331       3.976304                                 
 H       5.718329      -2.680625       3.197354                                 
 H       6.564392      -4.091023       2.502178                                 
 H       5.477145      -3.765082       0.377055                                 
 H       6.213406      -2.219694       0.885017                                 
 C      -3.468285       3.525403       2.807015                                 
 C      -2.565398       2.337674       3.146057                                 
 C      -3.365451       1.135757       3.652322                                 
 C      -4.284086       1.508354       4.817767                                 
 C      -5.186975       2.696073       4.478725                                 
 C      -4.386909       3.897990       3.972469                                 
 H      -4.083956       3.260629       1.949980                                 
 H      -2.841278       4.382495       2.570802                                 
 H      -2.026404       2.043202       2.248123                                 
 H      -1.866938       2.642387       3.922580                                 
 H      -3.976102       0.755798       2.836026                                 
 H      -2.668550       0.371401       3.989650                                 
 H      -3.668415       1.773118       5.674813                                 
 H      -4.911085       0.651251       5.053979                                 
 H      -5.885422       2.391369       3.702211                                 
 H      -5.725966       2.990555       5.376669                                 
 H      -3.776268       4.277950       4.788766                                 
 H      -5.083821       4.662346       3.635142                                 
 C       2.751588       3.928119      -3.324781                                 
 C       1.523344       3.124354      -3.756336                                 
 C       1.031912       3.531068      -5.147044                                 
 C       0.796355       5.039112      -5.253510                                 
 C       2.024600       5.842886      -4.821956                                 
 C       2.516032       5.436173      -3.431238                                 
 H       3.586368       3.660321      -3.969108                                 
 H       2.980594       3.684237      -2.289570                                 
 H       1.787579       2.069160      -3.775800                                 
 H       0.723598       3.299925      -3.039900                                 
 H       1.783762       3.244081      -5.879172                                 
 H       0.094017       3.017643      -5.348250                                 
 H      -0.038415       5.306919      -4.609185                                 
 H       0.567358       5.282992      -6.288723                                 
 H       2.824357       5.667315      -5.538384                                 
 H       1.760364       6.898080      -4.802492                                 
 H       1.764181       5.723160      -2.699121                                 
 H       3.453938       5.949597      -3.230034                                 
 C      -5.044439       3.976321      -1.042312                                 
 C      -4.816178       5.489140      -1.027378                                 
 C      -4.024033       5.961268      -2.248304                                 
 C      -2.715960       5.185915      -2.417900                                 
 C      -2.944220       3.673105      -2.432835                                 
 C      -3.736368       3.200967      -1.211918                                 
 H      -5.703409       3.732311      -1.872921                                 
 H      -5.501885       3.684351      -0.099353                                 
 H      -5.783600       5.986736      -1.026932                                 
 H      -4.258369       5.747724      -0.129804                                 
 H      -4.633841       5.812969      -3.137004                                 
 H      -3.789156       7.016244      -2.123597                                 
 H      -2.057001       5.429936      -1.587300                                 
 H      -2.258515       5.477886      -3.360859                                 
 H      -3.502031       3.414512      -3.330418                                 
 H      -1.976810       3.175510      -2.433289                                 
 H      -3.126559       3.349267      -0.323208                                 
 H      -3.971245       2.145992      -1.336625                                 
 C      -0.286028      -0.638658      -5.356664                                 
 C      -1.603054       0.107168      -5.580501                                 
 C      -2.342573       0.371104      -4.267324                                 
 C      -2.540233      -0.909267      -3.453321                                 
 C      -1.223206      -1.655084      -3.229485                                 
 C      -0.483698      -1.919028      -4.542659                                 
 H       0.396108       0.014676      -4.816801                                 
 H       0.132476      -0.903624      -6.325276                                 
 H      -1.385761       1.061718      -6.055064                                 
 H      -2.240090      -0.497232      -6.222828                                 
 H      -1.759526       1.073152      -3.675015                                 
 H      -3.319471       0.791385      -4.496907                                 
 H      -3.222369      -1.562602      -3.993184                                 
 H      -2.958736      -0.644292      -2.484710                                 
 H      -0.586181      -1.050693      -2.587156                                 
 H      -1.440500      -2.609644      -2.754921                                 
 H      -1.066734      -2.621068      -5.134971                                 
 H       0.493211      -2.339301      -4.313078                                 
                                                                                
      -5.955104      -1.801300      -1.357803      -0.120000                    
      -6.944600      -0.653518      -1.147087      -0.120000                    
      -6.633981       0.145518       0.120222      -0.120000                    
      -6.528359      -0.753801       1.353516      -0.120000                    
      -5.538865      -1.901584       1.142791      -0.120000                    
      -5.849484      -2.700619      -0.124518      -0.120000                    
      -4.973726      -1.380466      -1.566278       0.060000                    
      -6.294144      -2.402695      -2.198596       0.060000                    
      -6.887951       0.015919      -2.002815       0.060000                    
      -7.946029      -1.069524      -1.059065       0.060000                    
      -5.685374       0.660199      -0.017042       0.060000                    
      -7.433715       0.865141       0.282186       0.060000                    
      -7.509739      -1.174645       1.561982       0.060000                    
      -6.189321      -0.152406       2.194299       0.060000                    
      -4.537434      -1.485577       1.054778       0.060000                    
      -5.595514      -2.571030       1.998519       0.060000                    
      -6.798092      -3.215310       0.012746       0.060000                    
      -5.049748      -3.420242      -0.286473       0.060000                    
       3.095018      -7.834054      -1.289275      -0.120000                    
       2.319115      -6.971734      -2.286864      -0.120000                    
       1.783656      -5.691412      -1.642619      -0.120000                    
       0.968462      -5.982126      -0.380901      -0.120000                    
       1.744354      -6.844446       0.616690      -0.120000                    
       2.279812      -8.124778      -0.027554      -0.120000                    
       4.001372      -7.304568      -1.003250       0.060000                    
       3.344890      -8.778950      -1.767120       0.060000                    
       2.985586      -6.698223      -3.102127       0.060000                    
       1.477815      -7.548907      -2.664698       0.060000                    
       2.626810      -5.058642      -1.373681       0.060000                    
       1.143743      -5.182436      -2.360361       0.060000                    
       0.062107      -6.511622      -0.666915       0.060000                    
       0.718589      -5.037230       0.096945       0.060000                    
       2.585663      -6.267284       0.994523       0.060000                    
       1.077884      -7.117956       1.431952       0.060000                    
       1.436669      -8.757549      -0.296483       0.060000                    
       2.919737      -8.633754       0.690196       0.060000                    
      -2.051775      -4.965831       1.602837      -0.120000                    
      -2.253799      -6.475044       1.752459      -0.120000                    
      -2.749646      -6.851076       3.150224      -0.120000                    
      -1.851131      -6.281321       4.249778      -0.120000                    
      -1.649098      -4.772120       4.100156      -0.120000                    
      -1.153249      -4.396076       2.702400      -0.120000                    
      -3.022500      -4.477784       1.659426       0.060000                    
      -1.587187      -4.771140       0.638541       0.060000                    
      -2.991611      -6.801144       1.022442       0.060000                    
      -1.302500      -6.972427       1.575575       0.060000                    
      -3.754000      -6.453922       3.281361       0.060000                    
      -2.758628      -7.935655       3.235799       0.060000                    
      -0.880406      -6.769368       4.193190       0.060000                    
      -2.315719      -6.476022       5.214085       0.060000                    
      -2.600405      -4.274724       4.277050       0.060000                    
      -0.911294      -4.446008       4.830184       0.060000                    
      -0.148906      -4.793231       2.571254       0.060000                    
      -1.144277      -3.311497       2.616826       0.060000                    
       6.779387       1.670871      -1.260786      -0.120000                    
       6.050946       2.182018      -2.505384      -0.120000                    
       6.918322       2.075445      -3.761301      -0.120000                    
       8.279586       2.749196      -3.576796      -0.120000                    
       9.008037       2.238058      -2.332199      -0.120000                    
       8.140651       2.344623      -1.076271      -0.120000                    
       6.933222       0.598762      -1.363688       0.060000                    
       6.165807       1.881947      -0.387557       0.060000                    
       5.152594       1.586139      -2.651718       0.060000                    
       5.789788       3.226805      -2.350867       0.060000                    
       7.078801       1.022847      -3.984736       0.060000                    
       6.398846       2.561038      -4.584753       0.060000                    
       8.125751       3.821305      -3.473894       0.060000                    
       8.893167       2.538121      -4.450015       0.060000                    
       9.269196       1.193262      -2.486706       0.060000                    
       9.906389       2.833928      -2.185856       0.060000                    
       7.980181       3.397219      -0.852847       0.060000                    
       8.660128       1.859039      -0.252829       0.060000                    
       4.111320      -2.566067      -3.504566      -0.120000                    
       3.773138      -3.600775      -4.579708      -0.120000                    
       4.991222      -3.959185      -5.433457      -0.120000                    
       5.662824      -2.717694      -6.023915      -0.120000                    
       6.000995      -1.682984      -4.948771      -0.120000                    
       4.782921      -1.324575      -4.095024      -0.120000                    
       4.790564      -3.020321      -2.786247       0.060000                    
       3.189887      -2.262044      -3.012502       0.060000                    
       3.412562      -4.503912      -4.091949       0.060000                    
       3.002902      -3.189027      -5.228459       0.060000                    
       5.712813      -4.480617      -4.808119       0.060000                    
       4.666695      -4.600533      -6.250206       0.060000                    
       4.983579      -2.263439      -6.742243       0.060000                    
       6.584256      -3.021715      -6.515979       0.060000                    
       6.771240      -2.094733      -4.300031       0.060000                    
       6.361570      -0.779847      -5.436542       0.060000                    
       4.061330      -0.803144      -4.720362       0.060000                    
       5.107438      -0.683226      -3.278274       0.060000                    
      -2.154778      -6.808130      -2.759360      -0.120000                    
      -3.365692      -7.519472      -3.366456      -0.120000                    
      -4.165798      -6.600452      -4.291777      -0.120000                    
      -4.556284      -5.291648      -3.602157      -0.120000                    
      -3.345370      -4.580307      -2.995062      -0.120000                    
      -2.545263      -5.499326      -2.069731      -0.120000                    
      -1.447893      -6.584171      -3.555494       0.060000                    
      -1.697999      -7.466151      -2.023215       0.060000                    
      -3.014733      -8.372915      -3.942681       0.060000                    
      -4.015219      -7.850757      -2.558973       0.060000                    
      -3.555857      -6.366532      -5.161738       0.060000                    
      -5.073546      -7.117688      -4.595399       0.060000                    
      -5.263158      -5.515609      -2.806025       0.060000                    
      -5.013063      -4.633627      -4.338303       0.060000                    
      -2.695843      -4.249022      -3.802545       0.060000                    
      -3.696317      -3.726865      -2.418828       0.060000                    
      -3.155204      -5.733246      -1.199779       0.060000                    
      -1.637515      -4.982090      -1.766118       0.060000                    
       6.430045       7.289979       0.056147      -0.120000                    
       7.223531       8.584402       0.245086      -0.120000                    
       8.621922       8.494247      -0.369243      -0.120000                    
       9.391602       7.271550       0.134350      -0.120000                    
       8.598115       5.977127      -0.054599      -0.120000                    
       7.199721       6.067269       0.559731      -0.120000                    
       6.225266       7.159330      -1.004379       0.060000                    
       5.498950       7.368423       0.613362       0.060000                    
       6.683715       9.396661      -0.237050       0.060000                    
       7.323882       8.778308       1.310914       0.060000                    
       8.522778       8.421691      -1.450217       0.060000                    
       9.178056       9.389973      -0.100614       0.060000                    
       9.596371       7.402200       1.194877       0.060000                    
      10.322695       7.193096      -0.422874       0.060000                    
       8.497765       5.783220      -1.120427       0.060000                    
       9.137931       5.164858       0.427548       0.060000                    
       7.298859       6.139828       1.640715       0.060000                    
       6.643589       5.171546       0.291112       0.060000                    
       6.738460       4.434333       4.227976      -0.120000                    
       7.628575       3.646203       3.264925      -0.120000                    
       7.098791       2.231439       3.022584      -0.120000                    
       6.861390       1.476038       4.331789      -0.120000                    
       5.971264       2.264169       5.294843      -0.120000                    
       6.501060       3.678931       5.537191      -0.120000                    
       5.777621       4.609812       3.748732       0.060000                    
       7.224902       5.380398       4.455767       0.060000                    
       7.662614       4.172467       2.313370       0.060000                    
       8.626348       3.575261       3.692800       0.060000                    
       6.155370       2.300764       2.485176       0.060000                    
       7.829793       1.682847       2.432330       0.060000                    
       7.822220       1.300561       4.811045       0.060000                    
       6.374948       0.529973       4.103999       0.060000                    
       4.973490       2.335110       4.866967       0.060000                    
       5.937226       1.737905       6.246397       0.060000                    
       7.444470       3.609607       6.074591       0.060000                    
       5.770056       4.227524       6.127436       0.060000                    
       2.892024       9.644715      -2.659686      -0.120000                    
       2.099325       9.661475      -1.351171      -0.120000                    
       2.397696      10.908451      -0.516293      -0.120000                    
       3.897865      11.094697      -0.279976      -0.120000                    
       4.690563      11.077938      -1.588492      -0.120000                    
       4.392192       9.830961      -2.423369      -0.120000                    
       2.536402      10.455452      -3.292077       0.060000                    
       2.733633       8.686479      -3.149915       0.060000                    
       1.037504       9.647322      -1.587664       0.060000                    
       2.368316       8.781710      -0.770384       0.060000                    
       2.018218      11.780083      -1.045360       0.060000                    
       1.903770      10.807673       0.447908       0.060000                    
       4.253487      10.283961       0.352415       0.060000                    
       4.056255      12.052935       0.210253       0.060000                    
       4.421572      11.957704      -2.169278       0.060000                    
       5.752385      11.092092      -1.351998       0.060000                    
       4.771671       8.959331      -1.894302       0.060000                    
       4.886118       9.931740      -3.387570       0.060000                    
       1.341223       3.709381       6.035087      -0.120000                    
       2.269917       4.923993       5.979168      -0.120000                    
       2.868265       5.251397       7.348774      -0.120000                    
       1.790300       5.403189       8.423901      -0.120000                    
       0.861604       4.188568       8.479809      -0.120000                    
       0.263248       3.861174       7.110214      -0.120000                    
       1.936069       2.826976       6.261332       0.060000                    
       0.854816       3.598829       5.068236       0.060000                    
       3.081717       4.709448       5.287424       0.060000                    
       1.698167       5.783290       5.635192       0.060000                    
       3.536728       4.443358       7.638310       0.060000                    
       3.418100       6.187203       7.273217       0.060000                    
       1.195453       6.285585       8.197656       0.060000                    
       2.276707       5.513741       9.390751       0.060000                    
       1.433353       3.329269       8.823786       0.060000                    
       0.049805       4.403113       9.171563       0.060000                    
      -0.405205       4.669212       6.820677       0.060000                    
      -0.286588       2.925359       7.185771       0.060000                    
       3.020563      -4.199782       8.147198      -0.120000                    
       2.771858      -3.210041       9.287146      -0.120000                    
       1.852167      -2.064038       8.860682      -0.120000                    
       2.354771      -1.366169       7.595227      -0.120000                    
       2.603467      -2.355899       6.455280      -0.120000                    
       3.523158      -3.501912       6.881754      -0.120000                    
       2.085909      -4.706719       7.916744       0.060000                    
       3.770676      -4.919142       8.468753       0.060000                    
       2.304687      -3.741623      10.113418       0.060000                    
       3.726604      -2.791909       9.599086       0.060000                    
       0.861226      -2.468040       8.664671       0.060000                    
       1.809527      -1.334263       9.666513       0.060000                    
       3.289417      -0.859220       7.825693       0.060000                    
       1.604658      -0.646810       7.273673       0.060000                    
       1.648732      -2.774043       6.143350       0.060000                    
       3.070638      -1.824328       5.629009       0.060000                    
       4.514108      -3.097912       7.077755       0.060000                    
       3.565808      -4.231688       6.075922       0.060000                    
       7.112772       6.911706      -4.264494      -0.120000                    
       6.181890       7.754278      -5.138782      -0.120000                    
       5.762657       7.012833      -6.409814      -0.120000                    
       6.968774       6.491372      -7.193600      -0.120000                    
       7.899667       5.648808      -6.319314      -0.120000                    
       8.318899       6.390244      -5.048282      -0.120000                    
       6.553625       6.061121      -3.880409       0.060000                    
       7.471954       7.528864      -3.443693       0.060000                    
       5.288882       7.993908      -4.565502       0.060000                    
       6.703146       8.665676      -5.423904       0.060000                    
       5.138391       6.167166      -6.129125       0.060000                    
       5.205635       7.698709      -7.044667       0.060000                    
       7.527923       7.341958      -7.577676       0.060000                    
       6.609592       5.874214      -8.014400       0.060000                    
       7.378399       4.737401      -6.034189       0.060000                    
       8.792675       5.409169      -6.892583       0.060000                    
       8.943154       7.235911      -5.328969       0.060000                    
       8.875911       5.704369      -4.413428       0.060000                    
      -5.746943       2.787494      -5.106936      -0.120000                    
      -7.244980       2.973663      -4.857642      -0.120000                    
      -8.094162       2.276063      -5.922186      -0.120000                    
      -7.692878       2.692029      -7.338865      -0.120000                    
      -6.194830       2.505870      -7.588162      -0.120000                    
      -5.345658       3.203470      -6.523615      -0.120000                    
      -5.499588       1.736933      -4.969866       0.060000                    
      -5.197299       3.400484      -4.395778       0.060000                    
      -7.490736       2.551755      -3.885430       0.060000                    
      -7.470788       4.037828      -4.875177       0.060000                    
      -7.959946       1.200868      -5.824387       0.060000                    
      -9.137209       2.542050      -5.764081       0.060000                    
      -7.940234       3.742590      -7.475935       0.060000                    
      -8.242518       2.079050      -8.050015       0.060000                    
      -5.969031       1.441706      -7.570625       0.060000                    
      -5.949074       2.927778      -8.560373       0.060000                    
      -5.479875       4.278656      -6.621415       0.060000                    
      -4.302601       2.937483      -6.681722       0.060000                    
       5.629716       8.126776       5.246949      -0.120000                    
       5.906287       8.626437       3.827509      -0.120000                    
       6.421097      10.067231       3.817260      -0.120000                    