%nprocshared=4                                                                       
%mem=8GB                                                                             
#P pop=chelpg cam-b3lyp/gen scf=qc int=ultrafine charge td(nstates=10)               
                                                                                     
pNA CAM-B3LYP def2-TZVPD Single point - solvent def2-SV(P)                           
                                                                                     
0 1                                                                                  
 C       1.386341       0.000000       0.000000                                 
 C       0.000000       0.000000       0.000000                                 
 C      -0.712907       1.188984      -0.000000                                 
 C      -0.035635       2.384357       0.000131                                 
 C       1.365534       2.410943       0.000833                                 
 C       2.063239       1.195576       0.000133                                 
 H       1.918972      -0.938700       0.000854                                 
 H      -1.791888       1.163049       0.000837                                 
 H      -0.586620       3.315732      -0.002113                                 
 H       3.145392       1.202000      -0.002090                                 
 N      -0.713906      -1.260429       0.001744                                 
 O      -1.931758      -1.232720       0.002551                                 
 O      -0.063858      -2.290656       0.002518                                 
 N       2.037885       3.598040      -0.033161                                 
 H       1.540331       4.445798       0.174764                                 
 H       3.020819       3.607257       0.174736                                 
 C       5.263331       7.272066      -0.376488                                 
 C       4.705272       5.854484      -0.517681                                 
 C       5.688871       4.798165      -0.010037                                 
 C       7.067017       4.938828      -0.659599                                 
 C       7.625074       6.356418      -0.518400                                 
 C       6.641475       7.412735      -1.026044                                 
 H       5.352363       7.506874       0.682100                                 
 H       4.578509       7.965158      -0.860456                                 
 H       3.787799       5.782632       0.062545                                 
 H       4.502486       5.663790      -1.569432                                 
 H       5.798326       4.913702       1.066205                                 
 H       5.292619       3.812597      -0.245322                                 
 H       6.977985       4.704020      -1.718187                                 
 H       7.751839       4.245735      -0.175631                                 
 H       7.827862       6.547103       0.533345                                 
 H       8.542548       6.428267      -1.098640                                 
 H       6.532022       7.297191      -2.102292                                 
 H       7.037730       8.398296      -0.790766                                 
 C       3.355628      -5.334810      -0.746713                                 
 C       2.939060      -3.969220      -0.196684                                 
 C       4.140170      -3.158488       0.294282                                 
 C       4.991682      -3.943553       1.294069                                 
 C       5.408260      -5.309141       0.744042                                 
 C       4.207151      -6.119880       0.253083                                 
 H       3.936850      -5.181792      -1.653613                                 
 H       2.458416      -5.909730      -0.966055                                 
 H       2.443672      -3.411735      -0.988786                                 
 H       2.258964      -4.123457       0.638390                                 
 H       4.759154      -2.900563      -0.562437                                 
 H       3.775205      -2.256617       0.781260                                 
 H       4.410470      -4.096569       2.200970                                 
 H       5.888894      -3.368634       1.513410                                 
 H       6.088346      -5.154906      -0.091034                                 
 H       5.903638      -5.866635       1.536150                                 
 H       3.588157      -6.377800       1.109793                                 
 H       4.572115      -7.021745      -0.233903                                 
 C      -3.842515       4.221647       0.163733                                 
 C      -3.840250       4.211260       1.693684                                 
 C      -4.081461       2.809554       2.257659                                 
 C      -5.346581       2.169883       1.682057                                 
 C      -5.348845       2.180269       0.152106                                 
 C      -5.107646       3.581981      -0.411864                                 
 H      -2.978676       3.662159      -0.189068                                 
 H      -3.788681       5.253424      -0.177065                                 
 H      -2.872098       4.564460       2.042362                                 
 H      -4.631529       4.869077       2.047047                                 
 H      -3.229127       2.182050       2.005831                                 
 H      -4.189693       2.883272       3.337743                                 
 H      -6.210423       2.729385       2.034856                                 
 H      -5.400414       1.138106       2.022855                                 
 H      -4.557567       1.522452      -0.201257                                 
 H      -6.316997       1.827070      -0.196572                                 
 H      -5.959968       4.209480      -0.160040                                 
 H      -4.999402       3.508258      -1.491953                                 
 C      -3.838583      -4.957376      -1.930662                                 
 C      -2.718130      -4.515656      -0.987073                                 
 C      -3.220903      -4.311036       0.443431                                 
 C      -4.422847      -3.365911       0.498993                                 
 C      -5.543298      -3.807638      -0.444601                                 
 C      -5.040518      -4.012249      -1.875098                                 
 H      -4.165745      -5.953341      -1.639703                                 
 H      -3.452295      -4.969157      -2.947626                                 
 H      -1.947849      -5.283903      -0.978301                                 
 H      -2.308847      -3.575041      -1.349607                                 
 H      -3.518247      -5.275869       0.848786                                 
 H      -2.415369      -3.884297       1.037327                                 
 H      -4.095683      -2.369953       0.208029                                 
 H      -4.809134      -3.354137       1.515952                                 
 H      -5.952584      -4.748240      -0.082070                                 
 H      -6.313579      -3.039392      -0.453373                                 
 H      -4.743184      -3.047418      -2.280455                                 
 H      -5.846059      -4.438998      -2.469001                                 
 C       0.721574       7.562165       1.005169                                 
 C       1.109574       8.775693       0.158021                                 
 C      -0.066164       9.734005      -0.042773                                 
 C      -1.300207       9.019163      -0.596956                                 
 C      -1.688217       7.805632       0.250191                                 
 C      -0.512481       6.847328       0.450991                                 
 H       0.503205       7.899426       2.016253                                 
 H       1.554642       6.862516       1.012443                                 
 H       1.911412       9.310208       0.662987                                 
 H       1.444025       8.426724      -0.816681                                 
 H      -0.322439      10.175949       0.917757                                 
 H       0.232547      10.508054      -0.746599                                 
 H      -1.081847       8.681893      -1.608033                                 
 H      -2.133277       9.718819      -0.604225                                 
 H      -2.022668       8.154601       1.224892                                 
 H      -2.490054       7.271117      -0.254776                                 
 H      -0.256194       6.405378      -0.509545                                 
 H      -0.811183       6.073281       1.154818                                 
 C       1.904539       3.906434       5.660820                                 
 C       1.770222       5.127472       4.748728                                 
 C       0.375102       5.229047       4.128781                                 
 C      -0.032531       3.936158       3.419316                                 
 C       0.101786       2.715118       4.331408                                 
 C       1.496905       2.613545       4.951355                                 
 H       1.260032       4.046229       6.526113                                 
 H       2.942757       3.818767       5.973809                                 
 H       1.955059       6.023389       5.337624                                 
 H       2.501555       5.045074       3.947450                                 
 H      -0.343079       5.432636       4.920245                                 
 H       0.375627       6.038963       3.402275                                 
 H       0.611976       3.796362       2.554023                                 
 H      -1.070749       4.023825       3.106327                                 
 H      -0.629538       2.797521       5.132687                                 
 H      -0.083053       1.819210       3.742517                                 
 H       2.215097       2.409958       4.159892                                 
 H       1.496382       1.803629       5.677861                                 
                                                                                
       8.627023       0.583279       0.033899      -0.120000                    
       7.380834       0.678458       0.916437      -0.120000                    
       6.242197      -0.201791       0.397104      -0.120000                    
       5.925831       0.078488      -1.073390      -0.120000                    
       7.172021      -0.016691      -1.955928      -0.120000                    
       8.310658       0.863558      -1.436594      -0.120000                    
       9.035432      -0.421758       0.116182       0.060000                    
       9.354071       1.315426       0.378767       0.060000                    
       7.640923       0.353327       1.921526       0.060000                    
       7.042509       1.712398       0.929980       0.060000                    
       6.535655      -1.244626       0.496954       0.060000                    
       5.351061      -0.002268       0.988557       0.060000                    
       5.517423       1.083532      -1.155681       0.060000                    
       5.198794      -0.653657      -1.418257       0.060000                    
       7.510355      -1.050629      -1.969469       0.060000                    
       6.911932       0.308440      -2.961017       0.060000                    
       8.017197       1.906400      -1.536439       0.060000                    
       9.201793       0.664035      -2.028048       0.060000                    
      -0.593466       4.568003      -3.895210      -0.120000                    
      -0.896472       3.083927      -4.111128      -0.120000                    
      -2.310355       2.860409      -4.651527      -0.120000                    
      -3.370281       3.541354      -3.783257      -0.120000                    
      -3.067276       5.025430      -3.567338      -0.120000                    
      -1.653400       5.248938      -3.026947      -0.120000                    
      -0.567845       5.062199      -4.864132       0.060000                    
       0.371245       4.657493      -3.400359       0.060000                    
      -0.182906       2.684137      -4.828413       0.060000                    
      -0.802947       2.567712      -3.158002       0.060000                    
      -2.367455       3.272261      -5.656883       0.060000                    
      -2.510475       1.791146      -4.669858       0.060000                    
      -3.395900       3.047150      -2.814340       0.060000                    
      -4.334993       3.451864      -4.278107       0.060000                    
      -3.160799       5.541637      -4.520470       0.060000                    
      -3.780849       5.425210      -2.850060       0.060000                    
      -1.596303       4.837093      -2.021584       0.060000                    
      -1.453273       6.318211      -3.008608       0.060000                    
       2.453037      -2.930765       4.858383      -0.120000                    
       2.057626      -1.696729       4.044959      -0.120000                    
       3.279910      -0.921560       3.548851      -0.120000                    
       4.239349      -0.573343       4.688668      -0.120000                    
       4.634769      -1.807377       5.502093      -0.120000                    
       3.412485      -2.582546       5.998201      -0.120000                    
       2.943233      -3.641294       4.196160       0.060000                    
       1.553089      -3.370038       5.283442       0.060000                    
       1.477442      -2.019610       3.183170       0.060000                    
       1.462349      -1.040313       4.676168       0.060000                    
       3.809899      -1.535216       2.823486       0.060000                    
       2.940896       0.002508       3.085304       0.060000                    
       3.749156       0.137178       5.350885       0.060000                    
       5.139307      -0.134068       4.263610       0.060000                    
       5.230049      -2.463800       4.870878       0.060000                    
       5.214953      -1.484496       6.363883       0.060000                    
       2.882487      -1.968892       6.723565       0.060000                    
       3.751499      -3.506614       6.461748       0.060000                    
      -0.096952      -2.250680      -4.164399      -0.120000                    
       1.308155      -2.742500      -4.517388      -0.120000                    
       1.286700      -3.778925      -5.642721      -0.120000                    
       0.334024      -4.936682      -5.337719      -0.120000                    
      -1.071083      -4.444862      -4.984731      -0.120000                    
      -1.049628      -3.408436      -3.859397      -0.120000                    
      -0.491194      -1.689292      -5.008829       0.060000                    
      -0.031593      -1.613392      -3.285085       0.060000                    
       1.903696      -1.891164      -4.840159       0.060000                    
       1.749315      -3.198199      -3.633434       0.060000                    
       0.959195      -3.291178      -6.558394       0.060000                    
       2.291039      -4.178543      -5.766475       0.060000                    
       0.728267      -5.498069      -4.493289       0.060000                    
       0.268665      -5.573969      -6.217033       0.060000                    
      -1.512252      -3.989164      -5.868686       0.060000                    
      -1.666621      -5.296204      -4.661964       0.060000                    
      -0.722123      -3.896184      -2.943724       0.060000                    
      -2.053966      -3.008819      -3.735644       0.060000                    
      -1.961623      -1.693884       5.957160      -0.120000                    
      -2.824714      -1.041763       7.039166      -0.120000                    
      -4.009572      -0.278134       6.444167      -0.120000                    
      -3.566930       0.728356       5.380200      -0.120000                    
      -2.703830       0.076244       4.298187      -0.120000                    
      -1.518975      -0.687384       4.893200      -0.120000                    
      -2.542198      -2.477237       5.474498       0.060000                    
      -1.075480      -2.115832       6.426618       0.060000                    
      -3.207237      -1.820768       7.695161       0.060000                    
      -2.208362      -0.343675       7.601698       0.060000                    
      -4.688869      -0.993256       5.985038       0.060000                    
      -4.513052       0.260531       7.244182       0.060000                    
      -2.986345       1.511711       5.862863       0.060000                    
      -4.453074       1.150304       4.910742       0.060000                    
      -3.320182      -0.621844       3.735654       0.060000                    
      -2.321306       0.855242       3.642200       0.060000                    
      -0.839675       0.027730       5.352323       0.060000                    
      -1.015492      -1.226056       4.093179       0.060000                    
       0.106810      -6.339839       1.944468      -0.120000                    
       0.746509      -7.728282       2.007185      -0.120000                    
      -0.027733      -8.674983       2.926593      -0.120000                    
      -0.237702      -8.077283       4.319300      -0.120000                    
      -0.877401      -6.688838       4.256583      -0.120000                    
      -0.103159      -5.742138       3.337175      -0.120000                    
      -0.860154      -6.424405       1.453041       0.060000                    
       0.761434      -5.680662       1.378339       0.060000                    
       0.759608      -8.150697       1.004658       0.060000                    
       1.760888      -7.626907       2.387230       0.060000                    
      -1.001141      -8.872125       2.482474       0.060000                    
       0.535685      -9.600301       3.026734       0.060000                    
       0.729261      -7.992717       4.810727       0.060000                    
      -0.892337      -8.736456       4.885420       0.060000                    
      -1.891780      -6.790214       3.876537       0.060000                    
      -0.890500      -6.266424       5.259110       0.060000                    
       0.870251      -5.545004       3.781288       0.060000                    
      -0.666578      -4.816821       3.237034       0.060000                    
       4.366834       3.821306      -4.376882      -0.120000                    
       4.036280       4.671800      -5.605003      -0.120000                    
       2.736565       4.225796      -6.277981      -0.120000                    
       2.742188       2.730300      -6.601140      -0.120000                    
       3.072752       1.879803      -5.373010      -0.120000                    
       4.372457       2.325811      -4.700040      -0.120000                    
       3.616364       4.008844      -3.611842       0.060000                    
       5.353398       4.102404      -4.014596       0.060000                    
       3.927660       5.707881      -5.291439       0.060000                    
       4.849075       4.577777      -6.322056       0.060000                    
       1.907546       4.432881      -5.604589       0.060000                    
       2.616993       4.781508      -7.205680       0.060000                    
       3.492658       2.542763      -7.366179       0.060000                    
       1.755634       2.449198      -6.963417       0.060000                    
       2.259944       1.973837      -4.655960       0.060000                    
       3.181371       0.843721      -5.686574       0.060000                    
       5.201485       2.118722      -5.373424       0.060000                    
       4.492029       1.770098      -3.772341       0.060000                    
       7.232188       2.174794       4.554724      -0.120000                    
       6.275510       3.152743       5.239755      -0.120000                    
       6.095988       4.439618       4.431820      -0.120000                    
       7.436291       5.093593       4.089964      -0.120000                    
       8.392980       4.115646       3.404934      -0.120000                    
       8.572489       2.828776       4.212873      -0.120000                    
       6.771044       1.824984       3.633511       0.060000                    
       7.414618       1.338721       5.226530       0.060000                    
       5.305578       2.672059       5.348007       0.060000                    
       6.680754       3.409074       6.216332       0.060000                    
       5.580075       4.198962       3.504727       0.060000                    
       5.507352       5.140292       5.020304       0.060000                    
       7.897433       5.443410       5.011182       0.060000                    
       7.253861       5.929665       3.418158       0.060000                    
       7.987733       3.859322       2.428363       0.060000                    
       9.362912       4.596330       3.296682       0.060000                    
       9.088413       3.069420       5.139969       0.060000                    
       9.161127       2.128094       3.624384       0.060000                    
      -7.251168      -1.492238      -5.134656      -0.120000                    
      -7.828866      -1.072400      -3.781536      -0.120000                    
      -7.206741       0.229175      -3.271755      -0.120000                    
      -5.678366       0.162748      -3.246629      -0.120000                    
      -5.100668      -0.257096      -4.599742      -0.120000                    
      -5.722792      -1.558671      -5.109522      -0.120000                    
      -7.555223      -0.763987      -5.883582       0.060000                    
      -7.637884      -2.477237      -5.387280       0.060000                    
      -8.901151      -0.925353      -3.891821       0.060000                    
      -7.628397      -1.860130      -3.058383       0.060000                    
      -7.508689       1.040352      -3.930867       0.060000                    
      -7.563422       0.412155      -2.260329       0.060000                    
      -5.374300      -0.565500      -2.497702       0.060000                    
      -5.291648       1.147747      -2.994005       0.060000                    
      -5.301126       0.530636      -5.322893       0.060000                    
      -4.028382      -0.404137      -4.489464       0.060000                    
      -5.420834      -2.369846      -4.450409       0.060000                    
      -5.366102      -1.741649      -6.120947       0.060000                    
       3.634063       9.527878      -5.417434      -0.120000                    
       2.306578      10.215387      -5.742976      -0.120000                    
       1.442880      10.413666      -4.495682      -0.120000                    
       1.238050       9.106983      -3.726534      -0.120000                    
       2.565536       8.419473      -3.400994      -0.120000                    
       3.429234       8.221188      -4.648278      -0.120000                    
       4.233364      10.200245      -4.807156       0.060000                    
       4.148269       9.305411      -6.349992       0.060000                    
       2.517290      11.189839      -6.178434       0.060000                    
       1.758742       9.596417      -6.450373       0.060000                    
       1.936536      11.128773      -3.841025       0.060000                    
       0.470290      10.792336      -4.802913       0.060000                    
       0.638750       8.434616      -4.336813       0.060000                    
       0.723844       9.329449      -2.793977       0.060000                    
       3.113379       9.038446      -2.693581       0.060000                    
       2.354823       7.445021      -2.965535       0.060000                    
       2.935577       7.506087      -5.302944       0.060000                    
       4.401821       7.842532      -4.341051       0.060000                    
       5.240242      -4.997806      -4.374365      -0.120000                    
       4.910351      -3.590984      -3.871477      -0.120000                    
       4.972242      -2.552244      -4.993162      -0.120000                    
       6.306133      -2.595252      -5.741380      -0.120000                    
       6.636035      -4.002085      -6.244265      -0.120000                    
       6.574145      -5.040819      -5.122588      -0.120000                    
       4.451394      -5.318961      -5.051291       0.060000                    
       5.299547      -5.667746      -3.519186       0.060000                    
       3.904049      -3.596596      -3.457975       0.060000                    
       5.631967      -3.317806      -3.104453       0.060000                    
       4.170437      -2.755489      -5.699878       0.060000                    
       4.849618      -1.562716      -4.557776       0.060000                    
       7.094991      -2.274101      -5.064445       0.060000                    
       6.246828      -1.925311      -6.596559       0.060000                    
       5.914418      -4.275251      -7.011291       0.060000                    
       7.642336      -3.996459      -6.657768       0.060000                    
       7.375938      -4.837570      -4.415867       0.060000                    
       6.696767      -6.030338      -5.557967       0.060000                    
      -4.028835       8.827864       5.922097      -0.120000                    
      -2.580735       8.700580       5.444962      -0.120000                    
      -2.480909       7.967174       4.105888      -0.120000                    
      -3.194516       6.614132       4.138697      -0.120000                    
      -4.642617       6.741417       4.615833      -0.120000                    
      -4.742455       7.474829       5.954910      -0.120000                    
      -4.563013       9.486204       5.240248       0.060000                    
      -4.028469       9.245168       6.926818       0.060000                    
      -2.164645       9.698782       5.326490       0.060000                    
      -2.017005       8.142739       6.189736       0.060000                    
      -2.940428       8.584041       3.336509       0.060000                    
      -1.430085       7.800537       3.878244       0.060000                    
      -2.660349       5.955791       4.820545       0.060000                    
      -3.194883       6.196828       3.133976       0.060000                    
      -5.206357       7.299249       3.871064       0.060000                    
      -5.058706       5.743213       4.734303       0.060000                    
      -4.282923       6.857955       6.724284       0.060000                    
      -5.793266       7.641459       6.182549       0.060000                    
       4.739582       8.522598       5.777115      -0.120000                    
       3.882973       8.878344       4.560312      -0.120000                    
       4.638627       8.668872       3.246490      -0.120000                    
       5.982359       9.400464       3.235052      -0.120000                    
       6.838961       9.044715       4.451839      -0.120000                    
       6.083325       9.254198       5.765670      -0.120000                    
       4.927129       7.450939       5.768970       0.060000                    
       4.198144       8.804070       6.677785       0.060000                    
       3.000130       8.242644       4.558762       0.060000                    
       3.594321       9.924853       4.632300       0.060000                    
       4.821257       7.604288       3.116368       0.060000                    
       4.028556       9.049610       2.430076       0.060000                    
       5.794823      10.472131       3.243190       0.060000                    
       6.523808       9.118999       2.334374       0.060000                    
       7.127634       7.998209       4.379854       0.060000                    
       7.721821       9.680432       4.453390       0.060000                    
       5.900698      10.318773       5.895786       0.060000                    
       6.693408       8.873454       6.582080       0.060000                    
      -2.263489      -8.881756      -0.679016      -0.120000                    
      -1.097120      -8.624661      -1.635250      -0.120000                    
      -1.578006      -8.211375      -3.027709      -0.120000                    