%nprocshared=4                                                                       
%mem=8GB                                                                             
#P pop=chelpg cam-b3lyp/gen scf=qc int=ultrafine charge td(nstates=10)               
                                                                                     
pNA CAM-B3LYP def2-TZVPD Single point - solvent def2-SV(P)                           
                                                                                     
0 1                                                                                  
 C       1.386341       0.000000       0.000000                                 
 C       0.000000       0.000000       0.000000                                 
 C      -0.712907       1.188984      -0.000000                                 
 C      -0.035635       2.384357       0.000131                                 
 C       1.365534       2.410943       0.000833                                 
 C       2.063239       1.195576       0.000133                                 
 H       1.918972      -0.938700       0.000854                                 
 H      -1.791888       1.163049       0.000837                                 
 H      -0.586620       3.315732      -0.002113                                 
 H       3.145392       1.202000      -0.002090                                 
 N      -0.713906      -1.260429       0.001744                                 
 O      -1.931758      -1.232720       0.002551                                 
 O      -0.063858      -2.290656       0.002518                                 
 N       2.037885       3.598040      -0.033161                                 
 H       1.540331       4.445798       0.174764                                 
 H       3.020819       3.607257       0.174736                                 
 C       2.458177       8.345737      -0.773877                                 
 C       2.068295       8.527894       0.694340                                 
 C       3.109868       7.930000       1.642325                                 
 C       3.417572       6.468973       1.308095                                 
 C       3.807455       6.286816      -0.160121                                 
 C       2.765893       6.884705      -1.108119                                 
 H       3.345386       8.942594      -0.974658                                 
 H       1.630776       8.678153      -1.397157                                 
 H       1.980296       9.592329       0.901253                                 
 H       1.116107       8.030227       0.865564                                 
 H       4.028462       8.506840       1.558029                                 
 H       2.724581       7.980442       2.658544                                 
 H       2.530363       5.872117       1.508876                                 
 H       4.244983       6.136561       1.931367                                 
 H       4.759654       6.784479      -0.331357                                 
 H       3.895463       5.222386      -0.367043                                 
 H       1.847299       6.307862      -1.023813                                 
 H       3.151180       6.834260      -2.124328                                 
 C      -3.878830       5.920068       0.287578                                 
 C      -3.072721       6.873402       1.172014                                 
 C      -2.045753       7.671944       0.366590                                 
 C      -1.141971       6.764170      -0.470117                                 
 C      -1.948079       5.810835      -1.354553                                 
 C      -2.975049       5.012301      -0.549126                                 
 H      -4.497986       6.509724      -0.385198                                 
 H      -4.502236       5.297265       0.925640                                 
 H      -3.759222       7.570302       1.648060                                 
 H      -2.546571       6.289009       1.923862                                 
 H      -2.576535       8.346025      -0.302333                                 
 H      -1.425370       8.237918       1.058366                                 
 H      -0.522817       6.174523       0.202662                                 
 H      -0.518565       7.386972      -1.108179                                 
 H      -2.474229       6.395229      -2.106400                                 
 H      -1.261571       5.113944      -1.830586                                 
 H      -2.444266       4.338212       0.119794                                 
 H      -3.595430       4.446316      -1.240896                                 
 C       6.893957       3.608670       1.527259                                 
 C       5.714507       3.362047       2.470145                                 
 C       5.739234       1.951372       3.062072                                 
 C       5.840821       0.876450       1.977988                                 
 C       7.020269       1.123070       1.035143                                 
 C       6.995546       2.533733       0.443192                                 
 H       7.812467       3.602261       2.110351                                 
 H       6.758775       4.575330       1.046777                                 
 H       5.764007       4.081689       3.284498                                 
 H       4.789916       3.488188       1.910751                                 
 H       6.602043       1.865118       3.719152                                 
 H       4.820469       1.793612       3.623049                                 
 H       4.922315       0.882844       1.394912                                 
 H       5.976006      -0.090225       2.458487                                 
 H       7.944865       0.996920       1.594503                                 
 H       6.970771       0.403429       0.220759                                 
 H       6.132735       2.619997      -0.213886                                 
 H       7.914311       2.691494      -0.117786                                 
 C       3.445684       3.448721      -3.357979                                 
 C       4.645520       3.088656      -2.479562                                 
 C       5.695466       2.281871      -3.246183                                 
 C       5.090406       1.050156      -3.922815                                 
 C       3.890569       1.410220      -4.801232                                 
 C       2.840624       2.217002      -4.034602                                 
 H       3.774798       4.142349      -4.128829                                 
 H       2.684315       3.911703      -2.733850                                 
 H       5.105052       4.008667      -2.124503                                 
 H       4.294981       2.493200      -1.639186                                 
 H       6.133030       2.919298      -4.011610                                 
 H       6.460740       1.953222      -2.546097                                 
 H       4.761282       0.356525      -3.151965                                 
 H       5.851767       0.587162      -4.546948                                 
 H       4.241111       2.005667      -5.641611                                 
 H       3.431040       0.490197      -5.156284                                 
 H       2.403059       1.579578      -3.269185                                 
 H       2.075350       2.545654      -4.734698                                 
 C       0.924947      -2.338785      -5.619655                                 
 C       2.229776      -3.072793      -5.935256                                 
 C       2.516078      -4.190487      -4.930361                                 
 C       2.476645      -3.686899      -3.486114                                 
 C       1.171817      -2.952894      -3.170503                                 
 C       0.885515      -1.835197      -4.175407                                 
 H       0.094496      -3.025095      -5.771317                                 
 H       0.835814      -1.485022      -6.288069                                 
 H       2.151359      -3.509861      -6.928400                                 
 H       3.048307      -2.356893      -5.901542                                 
 H       1.762344      -4.966050      -5.048850                                 
 H       3.506625      -4.593174      -5.131177                                 
 H       3.307096      -3.000593      -3.334442                                 
 H       2.565781      -4.540675      -2.817693                                 
 H       0.353276      -3.668796      -3.204217                                 
 H       1.250234      -2.515826      -2.177359                                 
 H       1.639250      -1.059644      -4.056922                                 
 H      -0.105033      -1.432510      -3.974591                                 
 C      -2.813540       2.645681       2.670987                                 
 C      -4.050550       1.751094       2.569040                                 
 C      -5.320205       2.474958       3.021841                                 
 C      -5.166483       3.083522       4.417197                                 
 C      -3.929474       3.978109       4.519145                                 
 C      -2.659829       3.254243       4.066343                                 
 H      -2.907884       3.453186       1.947995                                 
 H      -1.932038       2.046116       2.454177                                 
 H      -4.174993       1.446707       1.532020                                 
 H      -3.902484       0.879426       3.203013                                 
 H      -5.535354       3.274177       2.315746                                 
 H      -6.139548       1.759447       3.042953                                 
 H      -5.072140       2.276016       5.140189                                 
 H      -6.047996       3.683085       4.634007                                 
 H      -4.077540       4.849777       3.885171                                 
 H      -3.805031       4.282496       5.556164                                 
 H      -2.444670       2.455026       4.772439                                 
 H      -1.840485       3.969754       4.045231                                 
                                                                                
       1.657382      -1.844726       4.230587      -0.120000                    
       0.148727      -1.652737       4.398021      -0.120000                    
      -0.350881      -0.392661       3.688408      -0.120000                    
       0.435139       0.851274       4.107717      -0.120000                    
       1.943793       0.659285       3.940282      -0.120000                    
       2.443391      -0.600796       4.649903      -0.120000                    
       1.867418      -2.052041       3.183413       0.060000                    
       1.972527      -2.680733       4.851361       0.060000                    
      -0.360695      -2.515565       3.974230       0.060000                    
      -0.075103      -1.566047       5.459179       0.060000                    
      -0.237684      -0.530043       2.615108       0.060000                    
      -1.398515      -0.243516       3.941264       0.060000                    
       0.225102       1.058589       5.154891       0.060000                    
       0.119993       1.687281       3.486942       0.060000                    
       2.167614       0.572590       2.879133       0.060000                    
       2.453206       1.522108       4.364083       0.060000                    
       2.330205      -0.463412       5.723205       0.060000                    
       3.491025      -0.749938       4.397038       0.060000                    
      -6.417102       1.540887      -1.922119      -0.120000                    
      -5.273304       0.666497      -1.404369      -0.120000                    
      -4.844438      -0.383421      -2.431398      -0.120000                    
      -6.027056      -1.219617      -2.924509      -0.120000                    
      -7.170862      -0.345239      -3.442262      -0.120000                    
      -7.599718       0.704681      -2.415233      -0.120000                    
      -6.047590       2.142529      -2.749875       0.060000                    
      -6.758452       2.182256      -1.112365       0.060000                    
      -4.420578       1.304746      -1.182840       0.060000                    
      -5.606507       0.155696      -0.503414       0.060000                    
      -4.399096       0.125479      -3.283628       0.060000                    
      -4.118580      -1.047711      -1.967082       0.060000                    
      -6.396566      -1.821269      -2.096756       0.060000                    
      -5.685706      -1.860986      -3.734263       0.060000                    
      -6.837651       0.165574      -4.343214       0.060000                    
      -8.023579      -0.983473      -3.663797       0.060000                    
      -8.045062       0.195790      -1.563000       0.060000                    
      -8.325578       1.368983      -2.879555       0.060000                    
      -5.018916      -3.616482       0.996292      -0.120000                    
      -6.533519      -3.488285       1.170785      -0.120000                    
      -6.931699      -2.123746       1.736946      -0.120000                    
      -6.176422      -1.795539       3.026433      -0.120000                    
      -4.661821      -1.923728       2.851943      -0.120000                    
      -4.263640      -3.288266       2.285782      -0.120000                    
      -4.698554      -2.924720       0.220096       0.060000                    
      -4.787436      -4.639825       0.708686       0.060000                    
      -7.007246      -3.613327       0.199431       0.060000                    
      -6.871079      -4.261567       1.857611       0.060000                    
      -6.703569      -1.360089       0.996419       0.060000                    
      -7.998230      -2.134328       1.951802       0.060000                    
      -6.496786      -2.487293       3.802632       0.060000                    
      -6.407904      -0.772188       3.314042       0.060000                    
      -4.324260      -1.150445       2.165117       0.060000                    
      -4.188093      -1.798686       3.823297       0.060000                    
      -4.491770      -4.051923       3.026308       0.060000                    
      -3.197109      -3.277684       2.070925       0.060000                    
       6.846991      -2.272187      -2.014299      -0.120000                    
       7.708625      -3.533842      -1.932499      -0.120000                    
       6.873085      -4.779997      -1.632571      -0.120000                    
       6.001171      -4.599778      -0.388249      -0.120000                    
       5.139548      -3.338130      -0.470051      -0.120000                    
       5.975085      -2.091966      -0.769976      -0.120000                    
       6.198884      -2.349562      -2.884734       0.060000                    
       7.502512      -1.408892      -2.107492       0.060000                    
       8.211553      -3.673934      -2.886969       0.060000                    
       8.438977      -3.405107      -1.136454       0.060000                    
       6.226265      -4.978272      -2.484603       0.060000                    
       7.546400      -5.618419      -1.466794       0.060000                    
       6.649287      -4.522401       0.482186       0.060000                    
       5.345659      -5.463071      -0.295055       0.060000                    
       4.409184      -3.466860      -1.266095       0.060000                    
       4.636619      -3.198030       0.484421       0.060000                    
       6.621896      -1.893693       0.082055       0.060000                    
       5.301762      -1.253547      -0.935754       0.060000                    
      -0.273535      -6.005119       5.021067      -0.120000                    
       0.510920      -6.029221       3.707683      -0.120000                    
      -0.401388      -5.853953       2.491945      -0.120000                    
      -1.553566      -6.860693       2.489892      -0.120000                    
      -2.338022      -6.836592       3.803276      -0.120000                    
      -1.425713      -7.011856       5.019006      -0.120000                    
      -0.683833      -5.007487       5.162747       0.060000                    
       0.403853      -6.253680       5.835259       0.060000                    
       1.234108      -5.216572       3.719684       0.060000                    
       1.020634      -6.986803       3.624655       0.060000                    
      -0.817805      -4.849032       2.511727       0.060000                    
       0.189404      -5.999887       1.590082       0.060000                    
      -1.143268      -7.858323       2.348203       0.060000                    
      -2.230955      -6.612133       1.675701       0.060000                    
      -2.847736      -5.879006       3.886294       0.060000                    
      -3.061210      -7.649241       3.791276       0.060000                    
      -1.009307      -8.016779       4.999222       0.060000                    
      -2.016506      -6.865925       5.920877       0.060000                    
      -2.151390       1.984072      -5.024766      -0.120000                    
      -2.725501       3.015235      -4.051134      -0.120000                    
      -3.864787       3.822253      -4.677041      -0.120000                    
      -3.454407       4.456633      -6.007494      -0.120000                    
      -2.880307       3.425465      -6.981117      -0.120000                    
      -1.741020       2.618451      -6.355220      -0.120000                    
      -2.910288       1.229086      -5.219027       0.060000                    
      -1.273570       1.528760      -4.571293       0.060000                    
      -3.108841       2.492665      -3.177344       0.060000                    
      -1.931498       3.700801      -3.762621       0.060000                    
      -4.706246       3.155872      -4.854485       0.060000                    
      -4.149519       4.614196      -3.987510       0.060000                    
      -2.695509       5.211619      -5.813232       0.060000                    
      -4.332237       4.911943      -6.460967       0.060000                    
      -3.674307       2.739890      -7.269632       0.060000                    
      -2.496966       3.948038      -7.854916       0.060000                    
      -0.899551       3.284831      -6.177766       0.060000                    
      -1.456288       1.826507      -7.044750       0.060000                    
      -1.392643      -6.419805      -2.744217      -0.120000                    
       0.060148      -6.873467      -2.587574      -0.120000                    
       0.161872      -8.359035      -2.235758      -0.120000                    
      -0.685609      -8.718091      -1.013516      -0.120000                    
      -2.138400      -8.264428      -1.170158      -0.120000                    
      -2.240135      -6.778850      -1.521982      -0.120000                    
      -1.817549      -6.909536      -3.617904       0.060000                    
      -1.407688      -5.339564      -2.872535       0.060000                    
       0.581116      -6.702245      -3.527186       0.060000                    
       0.520946      -6.294890      -1.789699       0.060000                    
      -0.188050      -8.942197      -3.084948       0.060000                    
       1.201745      -8.594552      -2.019110       0.060000                    
      -0.260713      -8.228363      -0.139829       0.060000                    
      -0.670574      -9.798331      -0.885207       0.060000                    
      -2.599197      -8.843004      -1.968043       0.060000                    
      -2.659377      -8.435655      -0.230547       0.060000                    
      -1.890201      -6.195697      -0.672794       0.060000                    
      -3.279996      -6.543345      -1.738622       0.060000                    
       4.196408       4.875060       5.606633      -0.120000                    
       4.648105       5.502047       6.927147      -0.120000                    
       3.817801       5.003754       8.111751      -0.120000                    
       2.316814       5.183573       7.875808      -0.120000                    
       1.865118       4.556584       6.555304      -0.120000                    
       2.695421       5.054878       5.370691      -0.120000                    
       4.419091       3.810452       5.633081       0.060000                    
       4.736157       5.353349       4.792039       0.060000                    
       5.690021       5.239816       7.098086       0.060000                    
       4.537718       6.581992       6.854994       0.060000                    
       4.022283       3.945398       8.258968       0.060000                    
       4.100759       5.569415       8.996974       0.060000                    
       2.094131       6.248181       7.849360       0.060000                    
       1.777066       4.705281       8.690412       0.060000                    
       1.975502       3.476649       6.627450       0.060000                    
       0.823202       4.818818       6.384355       0.060000                    
       2.490937       6.113244       5.223476       0.060000                    
       2.412464       4.489214       4.485477       0.060000                    
       0.148779       6.332131      -5.916753      -0.120000                    
       0.211080       6.983843      -7.299601      -0.120000                    
       0.884401       6.076252      -8.331076      -0.120000                    
       2.259055       5.595890      -7.861434      -0.120000                    
       2.196751       4.944187      -6.478582      -0.120000                    
       1.523432       5.851769      -5.447111      -0.120000                    
      -0.520627       5.475910      -5.965747       0.060000                    
      -0.225939       7.063788      -5.204156       0.060000                    
      -0.803623       7.193816      -7.631052       0.060000                    
       0.781858       7.906929      -7.223550       0.060000                    
       0.250426       5.207729      -8.496441       0.060000                    
       1.008727       6.634373      -9.256681       0.060000                    
       2.928458       6.452120      -7.812436       0.060000                    
       2.633770       4.864243      -8.574028       0.060000                    
       1.625976       4.021092      -6.554636       0.060000                    
       3.211456       4.734205      -6.147135       0.060000                    
       2.157405       6.720301      -5.281743       0.060000                    
       1.399107       5.293648      -4.521506       0.060000                    
      -1.248232       8.171893       6.790913      -0.120000                    
      -0.734538       7.374533       5.590386      -0.120000                    
      -1.142219       8.013379       4.261238      -0.120000                    
      -2.650162       8.260163       4.182420      -0.120000                    
      -3.163856       9.057524       5.382947      -0.120000                    
      -2.756186       8.418685       6.712098      -0.120000                    
      -0.739326       9.133226       6.813286       0.060000                    
      -1.034753       7.610696       7.698118       0.060000                    
       0.351617       7.334872       5.638400       0.060000                    
      -1.151167       6.370527       5.635826       0.060000                    
      -0.628158       8.967031       4.161698       0.060000                    
      -0.856659       7.344540       3.452013       0.060000                    
      -3.159070       7.298839       4.160049       0.060000                    
      -2.863642       8.821368       3.275218       0.060000                    
      -2.747227      10.061530       5.337507       0.060000                    
      -4.250010       9.097183       5.334932       0.060000                    
      -3.270237       7.465034       6.811638       0.060000                    
      -3.041737       9.087526       7.521323       0.060000                    
       8.947330       5.431452      -3.321138      -0.120000                    
       9.486819       6.521675      -4.249198      -0.120000                    
       9.493695       7.895654      -3.575992      -0.120000                    
       8.123250       8.259138      -3.000842      -0.120000                    
       7.583760       7.168916      -2.072782      -0.120000                    
       7.576893       5.794939      -2.745987      -0.120000                    
       9.645881       5.298830      -2.497667       0.060000                    
       8.852549       4.507761      -3.888055       0.060000                    
      10.506691       6.266615      -4.529190       0.060000                    
       8.853931       6.570636      -5.132801       0.060000                    
      10.218589       7.881753      -2.764868       0.060000                    
       9.769732       8.643954      -4.315989       0.060000                    
       7.424698       8.391760      -3.824314       0.060000                    
       8.218034       9.182819      -2.433928       0.060000                    
       8.216650       7.119945      -1.189183       0.060000                    
       6.563900       7.423969      -1.792793       0.060000                    
       6.851992       5.808827      -3.557115       0.060000                    
       7.300856       5.046638      -2.005991       0.060000                    
      -2.950799      -1.298395      -7.602046      -0.120000                    
      -3.524633      -1.870109      -6.304052      -0.120000                    
      -3.278565      -3.375340      -6.182732      -0.120000                    
      -3.773663      -4.138193      -7.413148      -0.120000                    
      -3.199828      -3.566479      -8.711142      -0.120000                    
      -3.445896      -2.061248      -8.832461      -0.120000                    
      -1.865786      -1.368284      -7.562996       0.060000                    
      -3.259037      -0.258805      -7.690256       0.060000                    
      -3.047429      -1.370936      -5.463363       0.060000                    
      -4.597650      -1.690971      -6.289678       0.060000                    
      -2.209388      -3.545299      -6.075234       0.060000                    
      -3.809219      -3.744899      -5.307787       0.060000                    
      -4.858675      -4.068304      -7.452198       0.060000                    
      -3.465424      -5.177783      -7.324938       0.060000                    
      -2.126812      -3.745617      -8.725516       0.060000                    
      -3.677032      -4.065652      -9.551831       0.060000                    
      -4.515074      -1.891290      -8.939960       0.060000                    
      -2.915242      -1.691690      -9.707407       0.060000                    
      -5.127604      -2.182559       8.177377      -0.120000                    
      -4.878094      -3.689973       8.097822      -0.120000                    
      -3.433059      -4.012084       7.711641      -0.120000                    
      -3.008113      -3.292410       6.430066      -0.120000                    
      -3.257623      -1.784993       6.509612      -0.120000                    
      -4.702648      -1.462880       6.895791      -0.120000                    
      -4.554434      -1.778672       9.009288       0.060000                    
      -6.190833      -2.013934       8.334601       0.060000                    
      -5.083525      -4.128321       9.072105       0.060000                    
      -5.541322      -4.113008       7.346267       0.060000                    
      -2.778239      -3.696423       8.521086       0.060000                    
      -3.346529      -5.084932       7.552893       0.060000                    
      -3.581281      -3.696307       5.598153       0.060000                    
      -1.944882      -3.461045       6.272839       0.060000                    
      -2.594392      -1.361971       7.261174       0.060000                    
      -3.052190      -1.346654       5.535324       0.060000                    
      -5.357476      -1.778556       6.086354       0.060000                    
      -4.789176      -0.390044       7.054547       0.060000                    
       7.049961       0.599785       8.494687      -0.120000                    
       7.455214      -0.804892       8.043548      -0.120000                    
       7.306426      -0.986476       6.531627      -0.120000                    