%nprocshared=4                                                                       
%mem=8GB                                                                             
#P pop=chelpg cam-b3lyp/gen scf=qc int=ultrafine charge td(nstates=10)               
                                                                                     
pNA CAM-B3LYP def2-TZVPD Single point - solvent def2-SV(P)                           
                                                                                     
0 1                                                                                  
 C       1.386341       0.000000       0.000000                                 
 C       0.000000       0.000000       0.000000                                 
 C      -0.712907       1.188984      -0.000000                                 
 C      -0.035635       2.384357       0.000131                                 
 C       1.365534       2.410943       0.000833                                 
 C       2.063239       1.195576       0.000133                                 
 H       1.918972      -0.938700       0.000854                                 
 H      -1.791888       1.163049       0.000837                                 
 H      -0.586620       3.315732      -0.002113                                 
 H       3.145392       1.202000      -0.002090                                 
 N      -0.713906      -1.260429       0.001744                                 
 O      -1.931758      -1.232720       0.002551                                 
 O      -0.063858      -2.290656       0.002518                                 
 N       2.037885       3.598040      -0.033161                                 
 H       1.540331       4.445798       0.174764                                 
 H       3.020819       3.607257       0.174736                                 
 C       5.783422       0.302883       3.167008                                 
 C       4.923681      -0.664608       2.351057                                 
 C       5.627472      -1.115510       1.069494                                 
 C       6.107703       0.070997       0.231293                                 
 C       6.967438       1.038478       1.047236                                 
 C       6.263647       1.489380       2.328800                                 
 H       6.653127      -0.234277       3.539502                                 
 H       5.189608       0.680894       3.996490                                 
 H       4.714238      -1.541684       2.959715                                 
 H       3.996959      -0.162859       2.080646                                 
 H       6.489605      -1.721057       1.340927                                 
 H       4.927709      -1.699988       0.475833                                 
 H       5.237992       0.608147      -0.141209                                 
 H       6.701520      -0.307020      -0.598196                                 
 H       7.894165       0.536740       1.317641                                 
 H       7.176881       1.915553       0.438579                                 
 H       5.401515       2.094927       2.057366                                 
 H       6.963410       2.073858       2.922461                                 
 C       3.768583      -2.219222      -2.649539                                 
 C       2.458264      -2.306881      -3.434597                                 
 C       2.695940      -2.620169      -4.913248                                 
 C       3.684057      -1.643737      -5.554529                                 
 C       4.994363      -1.556077      -4.769476                                 
 C       4.756687      -1.242789      -3.290826                                 
 H       4.224123      -3.206854      -2.621964                                 
 H       3.547275      -1.877451      -1.640708                                 
 H       1.847978      -3.098544      -3.005209                                 
 H       1.943695      -1.351186      -3.360069                                 
 H       3.099753      -3.627122      -4.994748                                 
 H       1.746719      -2.550494      -5.440292                                 
 H       3.228505      -0.656105      -5.582096                                 
 H       3.905365      -1.985509      -6.563358                                 
 H       5.508941      -2.511767      -4.844005                                 
 H       5.604651      -0.764415      -5.198850                                 
 H       4.352884      -0.235832      -3.209312                                 
 H       5.705921      -1.312466      -2.763775                                 
 C      -4.038201       1.733141      -2.558823                                 
 C      -4.977824       2.930202      -2.717241                                 
 C      -5.574242       3.371667      -1.379187                                 
 C      -6.243630       2.211732      -0.639293                                 
 C      -5.304007       1.014671      -0.480876                                 
 C      -4.707592       0.573212      -1.818921                                 
 H      -3.164925       2.049254      -1.992168                                 
 H      -3.742354       1.390054      -3.547904                                 
 H      -4.414969       3.760752      -3.137914                                 
 H      -5.790192       2.648745      -3.383996                                 
 H      -4.774975       3.766758      -0.755742                                 
 H      -6.320590       4.140476      -1.567996                                 
 H      -7.116907       1.895620      -1.205948                                 
 H      -6.539474       2.554814       0.349794                                 
 H      -4.491639       1.296127       0.185893                                 
 H      -5.866856       0.184132      -0.060195                                 
 H      -5.506851       0.178126      -2.442367                                 
 H      -3.961244      -0.195596      -1.630113                                 
 C      -5.710046      -4.877296      -0.129223                                 
 C      -5.520939      -5.889428       1.002453                                 
 C      -5.503020      -5.216221       2.376343                                 
 C      -4.479136      -4.081387       2.445368                                 
 C      -4.668244      -3.069256       1.313693                                 
 C      -4.686162      -3.742463      -0.060183                                 
 H      -6.707769      -4.450592      -0.050972                                 
 H      -5.593739      -5.393095      -1.080031                                 
 H      -6.344018      -6.600277       0.974335                                 
 H      -4.573390      -6.403193       0.854716                                 
 H      -6.490760      -4.805899       2.575349                                 
 H      -5.246294      -5.962118       3.125632                                 
 H      -3.481414      -4.508092       2.367117                                 
 H      -4.595438      -3.565578       3.396184                                 
 H      -5.615789      -2.555497       1.461436                                 
 H      -3.845165      -2.358406       1.341810                                 
 H      -3.698421      -4.152785      -0.259190                                 
 H      -4.942892      -2.996560      -0.809479                                 
 C      -1.933131       7.999122      -1.989686                                 
 C      -1.215809       9.233841      -2.538953                                 
 C       0.281473       8.987083      -2.734622                                 
 C       0.946092       8.456601      -1.462660                                 
 C       0.228770       7.221880      -0.913393                                 
 C      -1.268512       7.468639      -0.717724                                 
 H      -1.909086       7.217707      -2.746323                                 
 H      -2.961407       8.268635      -1.758154                                 
 H      -1.654251       9.491646      -3.500703                                 
 H      -1.343989      10.052685      -1.834138                                 
 H       0.412236       8.253345      -3.527192                                 
 H       0.755829       9.927094      -3.008635                                 
 H       0.922060       9.238013      -0.706017                                 
 H       1.974372       8.187079      -1.694185                                 
 H       0.356954       6.403030      -1.618202                                 
 H       0.667211       6.964076       0.048357                                 
 H      -1.399271       8.202370       0.074852                                 
 H      -1.742868       6.528627      -0.443711                                 
 C       3.088639      -4.532335       1.015252                                 
 C       1.635491      -5.006048       0.945199                                 
 C       1.452111      -6.387821       1.576124                                 
 C       2.419671      -7.418393       0.990673                                 
 C       3.872819      -6.944680       1.060726                                 
 C       4.056190      -5.562912       0.429801                                 
 H       3.349482      -4.363650       2.057926                                 
 H       3.180713      -3.608032       0.448930                                 
 H       1.011408      -4.293732       1.480657                                 
 H       1.336866      -5.058542      -0.099667                                 
 H       1.634026      -6.308503       2.645834                                 
 H       0.433656      -6.722387       1.390409                                 
 H       2.158819      -7.587083      -0.052000                                 
 H       2.327591      -8.342708       1.557001                                 
 H       4.171436      -6.892191       2.105592                                 
 H       4.496893      -7.657001       0.525269                                 
 H       3.874284      -5.642225      -0.639909                                 
 H       5.074649      -5.228353       0.615523                                 
                                                                                
       1.337641      -1.241525       3.546349      -0.120000                    
       0.823482      -2.433965       4.355408      -0.120000                    
      -0.700124      -2.417947       4.494510      -0.120000                    
      -1.211254      -1.086425       5.048414      -0.120000                    
      -0.697085       0.106020       4.239368      -0.120000                    
       0.826520       0.090002       4.100254      -0.120000                    
       0.995377      -1.344961       2.518810       0.060000                    
       2.424976      -1.239064       3.583452       0.060000                    
       1.116643      -3.350665       3.848174       0.060000                    
       1.263770      -2.395442       5.349543       0.060000                    
      -1.140610      -2.578130       3.512702       0.060000                    
      -0.995503      -3.213857       5.175012       0.060000                    
      -0.868980      -0.982984       6.075953       0.060000                    
      -2.298582      -1.088875       5.011319       0.060000                    
      -1.137373       0.067498       3.245220       0.060000                    
      -0.990247       1.022721       4.746589       0.060000                    
       1.266995       0.250187       5.082069       0.060000                    
       1.121892       0.885906       3.419765       0.060000                    
       0.912085       1.241172      -3.959838      -0.120000                    
      -0.237017       0.495485      -4.641316      -0.120000                    
      -0.835793       1.299010      -5.797539      -0.120000                    
      -1.243997       2.708752      -5.365113      -0.120000                    
      -0.094887       3.454443      -4.683636      -0.120000                    
       0.503893       2.650912      -3.527407      -0.120000                    
       1.740456       1.318773      -4.660886       0.060000                    
       1.215386       0.681132      -3.077835       0.060000                    
       0.142851      -0.445993      -5.032281       0.060000                    
      -1.016886       0.311307      -3.905408       0.060000                    
      -0.091690       1.379334      -6.587145       0.060000                    
      -1.718497       0.778058      -6.162452       0.060000                    
      -2.072359       2.631155      -4.664065       0.060000                    
      -1.547295       3.268784      -6.247109       0.060000                    
       0.684977       3.638610      -5.419537       0.060000                    
      -0.474750       4.395915      -4.292664       0.060000                    
      -0.240210       2.570588      -2.737801       0.060000                    
       1.386588       3.171859      -3.162493       0.060000                    
       2.305947       5.450241       5.583727      -0.120000                    
       3.233984       4.370660       6.144194      -0.120000                    
       3.956257       3.603418       5.034831      -0.120000                    
       2.981234       3.039771       3.999150      -0.120000                    
       2.053184       4.119355       3.438676      -0.120000                    
       1.330920       4.886601       4.548040      -0.120000                    
       2.912844       6.217863       5.108206       0.060000                    
       1.733179       5.876716       6.404463       0.060000                    
       3.978263       4.847113       6.778683       0.060000                    
       2.639271       3.667147       6.723039       0.060000                    
       4.642716       4.282015       4.532917       0.060000                    
       4.503340       2.776766       5.483280       0.060000                    
       2.374333       2.272156       4.474665       0.060000                    
       3.553995       2.613308       3.178416       0.060000                    
       2.647898       4.822867       2.859833       0.060000                    
       1.308914       3.642906       2.804188       0.060000                    
       0.644461       4.208004       5.049954       0.060000                    
       0.783841       5.713246       4.099597       0.060000                    
       6.926690       3.500406      -2.855699      -0.120000                    
       7.388303       3.018263      -4.232438      -0.120000                    
       6.259049       3.063524      -5.263808      -0.120000                    
       5.013221       2.316618      -4.783051      -0.120000                    
       4.551617       2.798765      -3.406312      -0.120000                    
       5.680874       2.753498      -2.374936      -0.120000                    
       6.693279       4.561139      -2.919038       0.060000                    
       7.729835       3.332768      -2.141307       0.060000                    
       8.196450       3.661921      -4.573291       0.060000                    
       7.736089       1.991322      -4.142584       0.060000                    
       5.993494       4.103201      -5.443233       0.060000                    
       6.609327       2.599473      -6.183405       0.060000                    
       5.246640       1.255889      -4.719713       0.060000                    
       4.210084       2.484261      -5.497444       0.060000                    
       4.203822       3.825702      -3.496166       0.060000                    
       3.743473       2.155101      -3.065453       0.060000                    
       5.946416       1.713823      -2.195517       0.060000                    
       5.330596       3.217548      -1.455339       0.060000                    
       5.385547       6.683229       1.456998      -0.120000                    
       6.297657       6.671289       0.228666      -0.120000                    
       7.250770       5.474399       0.234201      -0.120000                    
       8.044844       5.379916       1.538609      -0.120000                    
       7.132733       5.391856       2.766942      -0.120000                    
       6.179618       6.588752       2.761415      -0.120000                    
       4.711512       5.831315       1.397833       0.060000                    
       4.819781       7.612483       1.460934       0.060000                    
       5.678074       6.618178      -0.664011       0.060000                    
       6.887560       7.585446       0.224721       0.060000                    
       6.666595       4.564239       0.116073       0.060000                    
       7.950582       5.583464      -0.591697       0.060000                    
       8.718872       6.231843       1.597777       0.060000                    
       8.610605       4.450669       1.534668       0.060000                    
       6.542830       4.477699       2.770887       0.060000                    
       7.752316       5.444968       3.659618       0.060000                    
       6.763804       7.498911       2.879534       0.060000                    
       5.479808       6.479681       3.587304       0.060000                    
      -6.057389       1.561433       5.331525      -0.120000                    
      -6.571456       0.128072       5.480016      -0.120000                    
      -5.483506      -0.904961       5.179693      -0.120000                    
      -4.829431      -0.669017       3.816796      -0.120000                    
      -4.315356       0.764349       3.668304      -0.120000                    
      -5.403319       1.797383       3.968621      -0.120000                    
      -5.319075       1.748268       6.108471       0.060000                    
      -6.897330       2.244732       5.437006       0.060000                    
      -6.913335      -0.014477       6.502924       0.060000                    
      -7.393678      -0.020388       4.783186       0.060000                    
      -4.717589      -0.837010       5.949350       0.060000                    
      -5.934155      -1.895218       5.182197       0.060000                    
      -5.567741      -0.855840       3.039843       0.060000                    
      -3.989490      -1.352316       3.711316       0.060000                    
      -3.493143       0.912804       4.365135       0.060000                    
      -3.973485       0.906894       2.645397       0.060000                    
      -6.169236       1.729433       3.198965       0.060000                    
      -4.952666       2.787635       3.966111       0.060000                    
      -2.941666      -4.809132      -5.919879      -0.120000                    
      -4.172935      -4.622603      -5.031017      -0.120000                    
      -4.290640      -3.189416      -4.508374      -0.120000                    
      -3.008028      -2.724625      -3.815699      -0.120000                    
      -1.776753      -2.911144      -4.704555      -0.120000                    
      -1.659046      -4.344337      -5.227206      -0.120000                    
      -3.077085      -4.225978      -6.828315       0.060000                    
      -2.843509      -5.865492      -6.160732       0.060000                    
      -5.061409      -4.853881      -5.614719       0.060000                    
      -4.093638      -5.297172      -4.181110       0.060000                    
      -4.491117      -2.528239      -5.348773       0.060000                    
      -5.107954      -3.146861      -3.791483       0.060000                    
      -2.872613      -3.307773      -2.907256       0.060000                    
      -3.106184      -1.668248      -3.574846       0.060000                    
      -1.856056      -2.236585      -5.554470       0.060000                    
      -0.888280      -2.679866      -4.120852       0.060000                    
      -1.458571      -5.005507      -4.386798       0.060000                    
      -0.841732      -4.386891      -5.944096       0.060000                    
       2.028948      11.181911       3.823389      -0.120000                    
       1.451655       9.941653       4.508517      -0.120000                    
       2.041354       8.647923       3.943274      -0.120000                    
       1.909659       8.575098       2.420661      -0.120000                    
       2.486952       9.815354       1.735533      -0.120000                    
       1.897241      11.109086       2.300783      -0.120000                    
       3.083865      11.260287       4.077731       0.060000                    
       1.489329      12.057656       4.177541       0.060000                    
       1.680540       9.992998       5.570849       0.060000                    
       0.374670       9.929078       4.354737       0.060000                    
       3.096831       8.604210       4.203424       0.060000                    
       1.510097       7.804282       4.378884       0.060000                    
       0.854740       8.496720       2.166319       0.060000                    
       2.449275       7.699358       2.066517       0.060000                    
       3.563935       9.827935       1.889321       0.060000                    
       2.258065       9.764014       0.673208       0.060000                    
       0.841776      11.152798       2.040626       0.060000                    
       2.428507      11.952731       1.865173       0.060000                    
      -5.292879       8.116745       2.722770      -0.120000                    
      -4.983866       7.712339       1.279892      -0.120000                    
      -5.463844       6.293621       0.967036      -0.120000                    
      -4.931393       5.272940       1.974860      -0.120000                    
      -5.240410       5.677335       3.417730      -0.120000                    
      -4.760435       7.096059       3.730595      -0.120000                    
      -6.372017       8.190376       2.839695       0.060000                    
      -4.825234       9.078584       2.922019       0.060000                    
      -5.487135       8.405420       0.609125       0.060000                    
      -3.907245       7.756186       1.129479       0.060000                    
      -6.551221       6.279428       0.999297       0.060000                    
      -5.112184       6.018523      -0.025151       0.060000                    
      -3.852260       5.199298       1.857927       0.060000                    
      -5.399034       4.311096       1.775603       0.060000                    
      -6.317032       5.633488       3.568143       0.060000                    
      -4.737142       4.984256       4.088497       0.060000                    
      -3.673056       7.110246       3.698325       0.060000                    
      -5.112100       7.371164       4.722775       0.060000                    
       5.065896       8.929674      -3.749238      -0.120000                    
       6.566485       9.042128      -4.025847      -0.120000                    
       6.947617       8.431897      -5.376176      -0.120000                    
       6.444991       6.993719      -5.517733      -0.120000                    
       4.944401       6.881265      -5.241122      -0.120000                    
       4.563272       7.491490      -3.890802      -0.120000                    
       4.533112       9.555874      -4.461727       0.060000                    
       4.873482       9.266725      -2.732896       0.060000                    
       6.841355      10.094743      -4.030019       0.060000                    
       7.105150       8.514570      -3.241490       0.060000                    
       6.505554       9.034142      -6.167071       0.060000                    
       8.032088       8.431314      -5.463729       0.060000                    
       6.977784       6.367523      -4.805243       0.060000                    
       6.637414       6.656673      -6.534074       0.060000                    
       4.405748       7.408823      -6.025488       0.060000                    
       4.669541       5.828655      -5.236951       0.060000                    
       5.005341       6.889256      -3.099913       0.060000                    
       3.478802       7.492075      -3.803248       0.060000                    
      -2.911134      -8.717744      -0.196081      -0.120000                    
      -2.458160      -7.861329      -1.380246      -0.120000                    
      -3.590871      -7.621281      -2.380427      -0.120000                    
      -4.241219      -8.929539      -2.834900      -0.120000                    
      -4.694201      -9.785941      -1.650734      -0.120000                    
      -3.561482     -10.026001      -0.650554      -0.120000                    
      -3.636796      -8.152153       0.384610       0.060000                    
      -2.042169      -8.955065       0.413937       0.060000                    
      -2.117457      -6.899320      -1.003412       0.060000                    
      -1.646635      -8.375458      -1.890902       0.060000                    
      -4.349240      -7.002838      -1.905020       0.060000                    
      -3.183015      -7.114494      -3.252509       0.060000                    
      -3.515557      -9.495129      -3.415591       0.060000                    
      -5.110176      -8.692213      -3.444918       0.060000                    
      -5.505709      -9.271820      -1.140079       0.060000                    
      -5.034899     -10.747957      -2.027561       0.060000                    
      -2.803109     -10.644434      -1.125967       0.060000                    
      -3.969336     -10.532772       0.221529       0.060000                    
      -1.028478       3.819182       8.218254      -0.120000                    
      -1.388355       3.139567       6.895554      -0.120000                    
      -2.082176       4.100314       5.927785      -0.120000                    
      -3.291512       4.784880       6.568001      -0.120000                    
      -2.931643       5.464490       7.890701      -0.120000                    
      -2.237813       4.503748       8.858470      -0.120000                    
      -0.264876       4.570137       8.026838       0.060000                    
      -0.651848       3.064720       8.905608       0.060000                    
      -0.473798       2.777804       6.430413       0.060000                    
      -2.060277       2.309352       7.102744       0.060000                    
      -1.369350       4.864766       5.625972       0.060000                    
      -2.420411       3.536471       5.060942       0.060000                    
      -4.055122       4.033921       6.759417       0.060000                    
      -3.668144       5.539326       5.880647       0.060000                    
      -2.259717       6.294699       7.683517       0.060000                    
      -3.846191       5.826258       8.355842       0.060000                    
      -2.950636       3.739290       9.160289       0.060000                    
      -1.899587       5.067586       9.725313       0.060000                    
       2.396739      -6.998239      -5.283422      -0.120000                    
       3.021424      -8.394711      -5.260986      -0.120000                    
       2.034808      -9.456056      -4.769953      -0.120000                    
       1.415994      -9.083284      -3.421207      -0.120000                    
       0.791303      -7.686823      -3.443652      -0.120000                    
       1.777921      -6.625462      -3.934685      -0.120000                    
       1.616364      -6.978549      -6.041279       0.060000                    
       3.172722      -6.273993      -5.521978       0.060000                    
       3.334604      -8.651805      -6.270651       0.060000                    
       3.879095      -8.381225      -4.591756       0.060000                    
       1.237044      -9.554854      -5.503046       0.060000                    
       2.565298     -10.399553      -4.660135       0.060000                    
       2.196369      -9.102973      -2.663350       0.060000                    
       0.640014      -9.807537      -3.182659       0.060000                    
      -0.066366      -7.700292      -4.112880       0.060000                    
       0.478123      -7.429730      -2.433988       0.060000                    
       2.575685      -6.526661      -3.201591       0.060000                    
       1.247432      -5.681964      -4.044502       0.060000                    
       6.620712      -6.681487      -2.288718      -0.120000                    
       6.544687      -7.172506      -3.735768      -0.120000                    
       7.518351      -6.422748      -4.647276      -0.120000                    