%nprocshared=4                                                                       
%mem=8GB                                                                             
#P pop=chelpg cam-b3lyp/gen scf=qc int=ultrafine charge td(nstates=10)               
                                                                                     
pNA CAM-B3LYP def2-TZVPD Single point - solvent def2-SV(P)                           
                                                                                     
0 1                                                                                  
 C       1.386341       0.000000       0.000000                                 
 C       0.000000       0.000000       0.000000                                 
 C      -0.712907       1.188984      -0.000000                                 
 C      -0.035635       2.384357       0.000131                                 
 C       1.365534       2.410943       0.000833                                 
 C       2.063239       1.195576       0.000133                                 
 H       1.918972      -0.938700       0.000854                                 
 H      -1.791888       1.163049       0.000837                                 
 H      -0.586620       3.315732      -0.002113                                 
 H       3.145392       1.202000      -0.002090                                 
 N      -0.713906      -1.260429       0.001744                                 
 O      -1.931758      -1.232720       0.002551                                 
 O      -0.063858      -2.290656       0.002518                                 
 N       2.037885       3.598040      -0.033161                                 
 H       1.540331       4.445798       0.174764                                 
 H       3.020819       3.607257       0.174736                                 
 C      -0.939112       7.357813       1.518431                                 
 C      -0.694914       5.852589       1.393821                                 
 C      -0.758336       5.147470       2.750212                                 
 C       0.171911       5.795884       3.777468                                 
 C      -0.072285       7.301112       3.902087                                 
 C      -0.008865       8.006227       2.545688                                 
 H      -1.968589       7.518288       1.831590                                 
 H      -0.763039       7.820020       0.549441                                 
 H      -1.459077       5.428856       0.745629                                 
 H       0.292821       5.694824       0.965846                                 
 H      -1.779111       5.201406       3.122694                                 
 H      -0.459657       4.109786       2.616918                                 
 H       1.201388       5.635409       3.464309                                 
 H      -0.004160       5.333682       4.746467                                 
 H      -1.060025       7.458865       4.330058                                 
 H       0.691878       7.724845       4.550280                                 
 H       1.011912       7.952295       2.173214                                 
 H      -0.307546       9.043908       2.678995                                 
 C       7.571617       3.927048       1.912918                                 
 C       6.501167       4.703842       1.143731                                 
 C       5.087438       4.331228       1.594893                                 
 C       4.848307       2.820904       1.542451                                 
 C       5.918753       2.044101       2.311642                                 
 C       7.332486       2.416724       1.860476                                 
 H       7.552812       4.246097       2.952890                                 
 H       8.542063       4.140947       1.470076                                 
 H       6.652155       5.767346       1.316079                                 
 H       6.599604       4.475475       0.084567                                 
 H       4.948906       4.669806       2.619508                                 
 H       4.372310       4.819483       0.936216                                 
 H       4.867112       2.501855       0.502479                                 
 H       3.877852       2.607009       1.985293                                 
 H       5.820311       2.272481       3.370801                                 
 H       5.767770       0.980610       2.139299                                 
 H       7.471017       2.078146       0.835861                                 
 H       8.047610       1.928462       2.519157                                 
 C       2.617976      -4.675604       2.206701                                 
 C       3.859287      -5.523534       1.921949                                 
 C       5.139205      -4.685157       1.925602                                 
 C       5.039111      -3.481949       0.985761                                 
 C       3.797796      -2.634027       1.270518                                 
 C       2.517870      -3.472396       1.266874                                 
 H       2.672065      -4.313055       3.231061                                 
 H       1.734612      -5.296223       2.072244                                 
 H       3.942222      -6.287996       2.691569                                 
 H       3.748374      -5.984405       0.942664                                 
 H       5.314801      -4.323139       2.936403                                 
 H       5.966549      -5.312424       1.600405                                 
 H       4.985018      -3.844507      -0.038594                                 
 H       5.922471      -2.861337       1.120223                                 
 H       3.908708      -2.173157       2.249803                                 
 H       3.714860      -1.869565       0.500898                                 
 H       2.342285      -3.834414       0.256059                                 
 H       1.690533      -2.845137       1.592062                                 
 C       0.014333      -2.854883      -3.429985                                 
 C       0.881982      -1.603364      -3.282385                                 
 C       0.137813      -0.336492      -3.709356                                 
 C      -0.450141      -0.463581      -5.116170                                 
 C      -1.317790      -1.715100      -5.263770                                 
 C      -0.573621      -2.981972      -4.836800                                 
 H      -0.803827      -2.797052      -2.715183                                 
 H       0.629162      -3.729811      -3.229794                                 
 H       1.170886      -1.501700      -2.238475                                 
 H       1.764284      -1.716087      -3.908874                                 
 H      -0.674331      -0.157280      -3.007996                                 
 H       0.836557       0.497404      -3.698637                                 
 H       0.368017      -0.521416      -5.830981                                 
 H      -1.064964       0.411335      -5.316356                                 
 H      -2.200095      -1.602385      -4.637277                                 
 H      -1.606694      -1.816764      -6.307680                                 
 H       0.238519      -3.161193      -5.538155                                 
 H      -1.272365      -3.815868      -4.847517                                 
 C       3.835460       1.269622      -3.215842                                 
 C       5.028511       1.370926      -4.168358                                 
 C       5.802962       2.676972      -3.979975                                 
 C       4.891260       3.902332      -4.071001                                 
 C       3.698211       3.801032      -3.118475                                 
 C       2.923769       2.494982      -3.306859                                 
 H       4.209526       1.189493      -2.197347                                 
 H       3.256931       0.385795      -3.475981                                 
 H       5.700162       0.537352      -3.974258                                 
 H       4.661056       1.329114      -5.191533                                 
 H       6.271850       2.664640      -2.998358                                 
 H       6.559475       2.747914      -4.758657                                 
 H       4.517205       3.982460      -5.089487                                 
 H       5.469791       4.786163      -3.810852                                 
 H       4.065666       3.842845      -2.095302                                 
 H       3.026560       4.634607      -3.312576                                 
 H       2.454870       2.507314      -4.288485                                 
 H       2.167248       2.424049      -2.528190                                 
 C      -3.074801      -1.494522       3.245567                                 
 C      -2.527693      -0.819041       4.504668                                 
 C      -3.092692      -1.444001       5.781841                                 
 C      -4.622151      -1.484948       5.772040                                 
 C      -5.169256      -2.160422       4.512936                                 
 C      -4.604248      -1.535465       3.235762                                 
 H      -2.699466      -2.514978       3.207402                                 
 H      -2.736408      -0.935210       2.375950                                 
 H      -1.445133      -0.926576       4.514431                                 
 H      -2.802129       0.233483       4.481798                                 
 H      -2.718153      -2.461994       5.865920                                 
 H      -2.766281      -0.850377       6.633189                                 
 H      -4.997482      -0.464485       5.810202                                 
 H      -4.960543      -2.044257       6.641644                                 
 H      -4.894820      -3.212946       4.535805                                 
 H      -6.251819      -2.052895       4.503177                                 
 H      -4.978790      -0.517481       3.151688                                 
 H      -4.930668      -2.129085       2.384415                                 
                                                                                
      -1.374839      -7.627101       2.598340      -0.120000                    
      -0.446491      -6.624734       3.287081      -0.120000                    
      -0.954736      -5.187722       3.153872      -0.120000                    
      -1.227411      -4.808803       1.696781      -0.120000                    
      -2.155763      -5.811179       1.008045      -0.120000                    
      -1.647522      -7.248175       1.141258      -0.120000                    
      -2.321202      -7.649811       3.134589       0.060000                    
      -0.905003      -8.608074       2.620361       0.060000                    
      -0.386540      -6.875729       4.343937       0.060000                    
       0.537474      -6.689484       2.827406       0.060000                    
      -1.880816      -5.092874       3.716928       0.060000                    
      -0.199774      -4.513597       3.552951       0.060000                    
      -0.281052      -4.786102       1.160536       0.060000                    
      -1.697245      -3.827827       1.674769       0.060000                    
      -3.139725      -5.746421       1.467715       0.060000                    
      -2.215714      -5.560184      -0.048812       0.060000                    
      -0.721444      -7.343027       0.578193       0.060000                    
      -2.402477      -7.922309       0.742171       0.060000                    
      -1.516121       6.852678      -3.145917      -0.120000                    
      -0.117167       6.379027      -3.545192      -0.120000                    
      -0.164449       5.120319      -4.413751      -0.120000                    
      -0.982975       4.004205      -3.761635      -0.120000                    
      -2.381938       4.477860      -3.362359      -0.120000                    
      -2.334646       5.736568      -2.493793      -0.120000                    
      -2.037401       7.189437      -4.039512       0.060000                    
      -1.416692       7.671076      -2.436091       0.060000                    
       0.370803       7.171766      -4.108213       0.060000                    
       0.445849       6.156663      -2.641174       0.060000                    
      -0.620542       5.373613      -5.368452       0.060000                    
       0.852216       4.763326      -4.564173       0.060000                    
      -0.461697       3.667442      -2.868026       0.060000                    
      -1.082412       3.185816      -4.471451       0.060000                    
      -2.944943       4.700224      -4.266368       0.060000                    
      -2.869898       3.685122      -2.799329       0.060000                    
      -1.878563       5.483274      -1.539100       0.060000                    
      -3.351310       6.093562      -2.343370       0.060000                    
      -5.207042      -2.111284      -1.039680      -0.120000                    
      -5.548400      -0.705613      -1.538146      -0.120000                    
      -7.000264      -0.327810      -1.237506      -0.120000                    
      -7.985236      -1.375870      -1.759403      -0.120000                    
      -7.643877      -2.781542      -1.260937      -0.120000                    
      -6.192011      -3.159341      -1.561568      -0.120000                    
      -5.241826      -2.112580       0.047717       0.060000                    
      -4.208541      -2.369910      -1.385571       0.060000                    
      -4.893661       0.007738      -1.042100       0.060000                    
      -5.396255      -0.672024      -2.614886       0.060000                    
      -7.121430      -0.243100      -0.159656       0.060000                    
      -7.218404       0.623835      -1.717659       0.060000                    
      -7.950451      -1.374574      -2.846800       0.060000                    
      -8.983736      -1.117245      -1.413512       0.060000                    
      -7.796018      -2.815123      -0.184202       0.060000                    
      -8.298615      -3.494888      -1.756974       0.060000                    
      -6.070843      -3.244046      -2.639432       0.060000                    
      -5.973873      -4.110989      -1.081424       0.060000                    
       5.872518       7.945438      -1.325392      -0.120000                    
       4.628254       8.302275      -0.509685      -0.120000                    
       3.343312       7.812527      -1.180574      -0.120000                    
       3.235074       8.290750      -2.629877      -0.120000                    
       4.479333       7.933904      -3.445580      -0.120000                    
       5.764268       8.423660      -2.774704      -0.120000                    
       5.990730       6.863918      -1.324083       0.060000                    
       6.737108       8.420087      -0.866345       0.060000                    
       4.708845       7.835438       0.469641       0.060000                    
       4.577132       9.384353      -0.408874       0.060000                    
       3.339632       6.724602      -1.172244       0.060000                    
       2.491770       8.196994      -0.623097       0.060000                    
       3.116861       9.372270      -2.631187       0.060000                    
       2.370483       7.816101      -3.088924       0.060000                    
       4.530458       6.851830      -3.546404       0.060000                    
       4.398745       8.400745      -4.424918       0.060000                    
       5.767945       9.511578      -2.783030       0.060000                    
       6.615813       8.039198      -3.332173       0.060000                    
       3.575905       2.895235       5.334362      -0.120000                    
       4.069612       1.453907       5.474736      -0.120000                    
       3.454636       0.532156       4.419680      -0.120000                    
       1.926953       0.615854       4.405666      -0.120000                    
       1.433243       2.057175       4.265296      -0.120000                    
       2.048209       2.978930       5.320353      -0.120000                    
       3.955039       3.303197       4.399749       0.060000                    
       3.948073       3.473886       6.177168       0.060000                    
       5.151126       1.443827       5.357288       0.060000                    
       3.793708       1.086339       6.460851       0.060000                    
       3.827944       0.826185       3.440989       0.060000                    
       3.744609      -0.492713       4.641849       0.060000                    
       1.547807       0.207888       5.340283       0.060000                    
       1.554782       0.037195       3.562864       0.060000                    
       1.709142       2.424755       3.279176       0.060000                    
       0.351729       2.067254       4.382744       0.060000                    
       1.674911       2.684896       6.299043       0.060000                    
       1.758246       4.003795       5.098183       0.060000                    
      -6.877645       3.189986       0.839237      -0.120000                    
      -7.188303       2.156098       1.923431      -0.120000                    
      -6.598923       2.552181       3.278710      -0.120000                    
      -5.101794       2.853960       3.186692      -0.120000                    
      -4.791135       3.887851       2.102508      -0.120000                    
      -5.380508       3.491760       0.747220      -0.120000                    
      -7.404171       4.111924       1.076855       0.060000                    
      -7.213270       2.800075      -0.119385       0.060000                    
      -8.268238       2.072528       2.024992       0.060000                    
      -6.762261       1.200565       1.624967       0.060000                    
      -7.112033       3.443336       3.633903       0.060000                    
      -6.745539       1.729441       3.975372       0.060000                    
      -4.575269       1.932021       2.949075       0.060000                    
      -4.766174       3.243862       4.145319       0.060000                    
      -5.217170       4.843376       2.400963       0.060000                    
      -3.711202       3.971418       2.000938       0.060000                    
      -4.867398       2.600605       0.392027       0.060000                    
      -5.233901       4.314504       0.050558       0.060000                    
       2.582980      -5.806113      -2.271579      -0.120000                    
       1.229296      -6.243724      -1.708585      -0.120000                    
       0.978034      -7.738503      -1.917156      -0.120000                    
       1.150106      -8.150042      -3.380744      -0.120000                    
       2.503788      -7.712434      -3.943747      -0.120000                    
       2.755051      -6.217651      -3.735167      -0.120000                    
       3.371047      -6.272686      -1.684296       0.060000                    
       2.653579      -4.722598      -2.204535       0.060000                    
       1.212433      -6.033961      -0.641195       0.060000                    
       0.445047      -5.685341      -2.215341       0.060000                    
       1.688715      -8.298193      -1.312739       0.060000                    
      -0.040428      -7.966068      -1.609493       0.060000                    
       0.362039      -7.683468      -3.968027       0.060000                    
       1.079516      -9.233561      -3.447788       0.060000                    
       3.288047      -8.270817      -3.436981       0.060000                    
       2.520656      -7.922185      -5.011132       0.060000                    
       2.044370      -5.657961      -4.339583       0.060000                    
       3.773512      -5.990090      -4.042839       0.060000                    
       9.537889      -1.636681      -1.291339      -0.120000                    
       8.697004      -2.868550      -0.950346      -0.120000                    
       7.396779      -2.915677      -1.755439      -0.120000                    
       6.594077      -1.619725      -1.624435      -0.120000                    
       7.434967      -0.387844      -1.965423      -0.120000                    
       8.735186      -0.340729      -1.160335      -0.120000                    
       9.886859      -1.727204      -2.317794       0.060000                    
      10.383177      -1.592648      -0.607881       0.060000                    
       9.278410      -3.759866      -1.176461       0.060000                    
       8.449302      -2.838200       0.108612       0.060000                    
       7.642615      -3.067876      -2.804247       0.060000                    
       6.789326      -3.739610      -1.386840       0.060000                    
       6.245107      -1.529202      -0.597980       0.060000                    
       5.748789      -1.663759      -2.307893       0.060000                    
       7.682664      -0.418206      -3.024385       0.060000                    
       6.853565       0.503459      -1.739304       0.060000                    
       8.489355      -0.188518      -0.111523       0.060000                    
       9.342640       0.483204      -1.528934       0.060000                    
       3.856969       6.816729       4.772665      -0.120000                    
       4.923725       7.527484       3.937366      -0.120000                    
       6.028972       8.126906       4.809219      -0.120000                    
       5.465754       9.030180       5.908248      -0.120000                    
       4.399008       8.319425       6.743556      -0.120000                    
       3.293759       7.719997       5.871693      -0.120000                    
       4.305652       5.941554       5.237887       0.060000                    
       3.042353       6.519043       4.115911       0.060000                    
       5.370594       6.805655       3.257012       0.060000                    
       4.448919       8.330252       3.377203       0.060000                    
       6.582365       7.314881       5.276147       0.060000                    
       6.688156       8.718221       4.177073       0.060000                    
       5.017067       9.905347       5.443031       0.060000                    
       6.280371       9.327869       6.565013       0.060000                    
       4.873808       7.516644       7.303715       0.060000                    
       3.952138       9.041249       7.423902       0.060000                    
       2.740364       8.532019       5.404779       0.060000                    
       2.634572       7.128675       6.503845       0.060000                    
      -6.674817       0.272390      -5.542999      -0.120000                    
      -6.173703      -0.066749      -6.948272      -0.120000                    
      -4.645601      -0.080749      -7.023968      -0.120000                    
      -4.033471       1.217973      -6.495209      -0.120000                    
      -4.534585       1.557112      -5.089937      -0.120000                    
      -6.062685       1.571116      -5.014231      -0.120000                    
      -6.402315      -0.539047      -4.871462       0.060000                    
      -7.756147       0.386591      -5.577597       0.060000                    
      -6.544337      -1.052545      -7.221100       0.060000                    
      -6.549270       0.682812      -7.641689       0.060000                    
      -4.275367      -0.909223      -6.423850       0.060000                    
      -4.350172      -0.206279      -8.063542       0.060000                    
      -4.305971       2.029414      -7.166737       0.060000                    
      -2.952135       1.103784      -6.460607       0.060000                    
      -4.159018       0.807551      -4.396519       0.060000                    
      -4.163949       2.542912      -4.817100       0.060000                    
      -6.432917       2.399595      -5.614363       0.060000                    
      -6.358115       1.696646      -3.974657       0.060000                    
      11.252207       5.060778      -3.284468      -0.120000                    
      10.546242       3.719947      -3.073057      -0.120000                    
       9.026336       3.878289      -2.996708      -0.120000                    
       8.609787       4.916187      -1.952542      -0.120000                    
       9.315763       6.257017      -2.163944      -0.120000                    
      10.835669       6.098671      -2.240302      -0.120000                    
      10.993904       5.437875      -4.271764       0.060000                    
      12.326134       4.903889      -3.209547       0.060000                    
      10.786020       3.065286      -3.908196       0.060000                    
      10.897802       3.285228      -2.139740       0.060000                    
       8.660765       4.198340      -3.970136       0.060000                    
       8.590004       2.918917      -2.726573       0.060000                    
       8.868091       4.539091      -0.965246       0.060000                    
       7.535861       5.073075      -2.027464       0.060000                    
       8.964192       6.691737      -3.097270       0.060000                    
       9.075975       6.911679      -1.328814       0.060000                    
      11.201230       5.778624      -1.266874       0.060000                    
      11.272001       7.058048      -2.510428       0.060000                    
       9.084674      -0.991525       3.572781      -0.120000                    
       7.619515      -1.430387       3.612603      -0.120000                    
       6.834242      -0.707328       4.708738      -0.120000                    
       7.508276      -0.835426       6.076334      -0.120000                    
       8.973420      -0.396571       6.036506      -0.120000                    
       9.758694      -1.119630       4.940373      -0.120000                    
       9.127365       0.049762       3.260355       0.060000                    
       9.616925      -1.620705       2.862566       0.060000                    
       7.162735      -1.204842       2.651286       0.060000                    
       7.582155      -2.500331       3.806376       0.060000                    
       6.768449       0.347626       4.451019       0.060000                    
       5.839455      -1.143734       4.769199       0.060000                    
       7.465572      -1.876717       6.388764       0.060000                    
       6.976016      -0.206242       6.786549       0.060000                    
       9.010782       0.673376       5.842742       0.060000                    
       9.430204      -0.622108       6.997819       0.060000                    
       9.824492      -2.174573       5.198096       0.060000                    
      10.753489      -0.683228       4.879911       0.060000                    
      -5.612521      -6.618762      -2.803165      -0.120000                    
      -4.739236      -5.718343      -3.679261      -0.120000                    
      -3.871201      -6.526769      -4.645723      -0.120000                    
      -3.048231      -7.594064      -3.921407      -0.120000                    
      -3.921516      -8.494483      -3.045310      -0.120000                    
      -4.789551      -7.686057      -2.078848      -0.120000                    
      -6.345179      -7.114924      -3.436171       0.060000                    
      -6.112468      -6.001428      -2.059846       0.060000                    
      -5.386521      -5.063142      -4.258296       0.060000                    
      -4.088021      -5.131834      -3.034573       0.060000                    
      -4.519938      -7.018450      -5.367532       0.060000                    
      -3.189657      -5.846866      -5.152651       0.060000                    
      -2.315573      -7.097901      -3.288401       0.060000                    
      -2.548275      -8.211402      -4.664726       0.060000                    
      -4.572731      -9.080991      -3.690000       0.060000                    
      -3.274230      -9.149683      -2.466275       0.060000                    
      -4.140804      -7.194380      -1.357041       0.060000                    
      -5.471095      -8.365960      -1.571921       0.060000                    
      -7.791883      -4.850422       2.197419      -0.120000                    
      -8.782143      -5.804837       2.867771      -0.120000                    
      -8.085522      -6.773760       3.825330      -0.120000                    