%nprocshared=4                                                                       
%mem=8GB                                                                             
#P pop=chelpg cam-b3lyp/gen scf=qc int=ultrafine charge td(nstates=10)               
                                                                                     
pNA CAM-B3LYP def2-TZVPD Single point - solvent def2-SV(P)                           
                                                                                     
0 1                                                                                  
 C       1.386341       0.000000       0.000000                                 
 C       0.000000       0.000000       0.000000                                 
 C      -0.712907       1.188984      -0.000000                                 
 C      -0.035635       2.384357       0.000131                                 
 C       1.365534       2.410943       0.000833                                 
 C       2.063239       1.195576       0.000133                                 
 H       1.918972      -0.938700       0.000854                                 
 H      -1.791888       1.163049       0.000837                                 
 H      -0.586620       3.315732      -0.002113                                 
 H       3.145392       1.202000      -0.002090                                 
 N      -0.713906      -1.260429       0.001744                                 
 O      -1.931758      -1.232720       0.002551                                 
 O      -0.063858      -2.290656       0.002518                                 
 N       2.037885       3.598040      -0.033161                                 
 H       1.540331       4.445798       0.174764                                 
 H       3.020819       3.607257       0.174736                                 
 C      -0.514650       5.179125       3.624094                                 
 C      -0.832777       5.107670       5.118936                                 
 C       0.353616       5.547869       5.979000                                 
 C       1.631368       4.783047       5.627793                                 
 C       1.949504       4.854504       4.132941                                 
 C       0.763104       4.414310       3.272881                                 
 H      -0.382692       6.222689       3.346176                                 
 H      -1.343894       4.743258       3.070921                                 
 H      -1.675313       5.763759       5.326885                                 
 H      -1.083399       4.079759       5.372332                                 
 H       0.527387       6.609177       5.814617                                 
 H       0.113409       5.362231       7.023798                                 
 H       1.499419       3.739485       5.905700                                 
 H       2.460612       5.218913       6.180966                                 
 H       2.200127       5.882415       3.879544                                 
 H       2.792040       4.198415       3.924992                                 
 H       0.589333       3.353002       3.437263                                 
 H       1.003311       4.599948       2.228082                                 
 C       5.775089      -3.152228       0.744123                                 
 C       4.480814      -2.478412       1.204226                                 
 C       3.249585      -3.334253       0.899866                                 
 C       3.188540      -3.747903      -0.571919                                 
 C       4.482823      -4.421724      -1.032027                                 
 C       5.714045      -3.565877      -0.727662                                 
 H       5.937912      -4.041899       1.348824                                 
 H       6.597198      -2.451686       0.874553                                 
 H       4.535466      -2.317697       2.278854                                 
 H       4.380234      -1.527591       0.685106                                 
 H       3.290684      -4.232661       1.512099                                 
 H       2.358026      -2.757146       1.136070                                 
 H       3.025718      -2.858231      -1.176621                                 
 H       2.366445      -4.448445      -0.702347                                 
 H       4.583404      -5.372545      -0.512906                                 
 H       4.428162      -4.582441      -2.106644                                 
 H       5.672952      -2.667466      -1.339889                                 
 H       6.605604      -4.142985      -0.963867                                 
 C      -0.498664       7.839216      -0.719378                                 
 C      -0.068933       9.295521      -0.531134                                 
 C       1.420655       9.415650      -0.203025                                 
 C       1.817382       8.542421       0.989068                                 
 C       1.387644       7.086122       0.800828                                 
 C      -0.101937       6.965987       0.472715                                 
 H      -0.017220       7.447323      -1.612859                                 
 H      -1.580587       7.807319      -0.828889                                 
 H      -0.266784       9.838323      -1.452987                                 
 H      -0.641241       9.723676       0.289112                                 
 H       1.994583       9.099808      -1.071642                                 
 H       1.640996      10.453538       0.037728                                 
 H       1.335931       8.934319       1.882553                                 
 H       2.899297       8.574324       1.098584                                 
 H       1.959965       6.657967      -0.019416                                 
 H       1.585494       6.543320       1.722681                                 
 H      -0.675865       7.281830       1.341331                                 
 H      -0.322278       5.928100       0.231963                                 
 C       4.829446       2.446205       4.447688                                 
 C       3.934693       1.496493       3.648703                                 
 C       4.733133       0.672738       2.636297                                 
 C       5.588594       1.556034       1.725816                                 
 C       6.483347       2.505746       2.524801                                 
 C       5.684901       3.329496       3.537200                                 
 H       5.489729       1.854121       5.077880                                 
 H       4.197802       3.086559       5.059681                                 
 H       3.444294       0.815728       4.341250                                 
 H       3.194756       2.085701       3.111120                                 
 H       5.388711      -0.004828       3.179178                                 
 H       4.035999       0.109702       2.019251                                 
 H       4.928304       2.148114       1.095617                                 
 H       6.220232       0.915676       1.113816                                 
 H       7.223278       1.916533       3.062377                                 
 H       6.973739       3.186507       1.832247                                 
 H       5.029323       4.007062       2.994319                                 
 H       6.382040       3.892529       4.154259                                 
 C      -6.043852       2.529182      -1.150177                                 
 C      -4.583199       2.846325      -0.823372                                 
 C      -3.666186       2.630016      -2.028909                                 
 C      -3.828650       1.232090      -2.629276                                 
 C      -5.289302       0.914947      -2.956081                                 
 C      -6.206322       1.131252      -1.750551                                 
 H      -6.405957       3.260698      -1.869540                                 
 H      -6.625150       2.582988      -0.232154                                 
 H      -4.513827       3.887707      -0.516199                                 
 H      -4.257448       2.192564      -0.017038                                 
 H      -3.913664       3.366419      -2.790557                                 
 H      -2.634122       2.752340      -1.707010                                 
 H      -3.466551       0.500570      -1.909919                                 
 H      -3.247350       1.178292      -3.547305                                 
 H      -5.615060       1.568704      -3.762422                                 
 H      -5.358674      -0.126435      -3.263254                                 
 H      -5.958837       0.394852      -0.988897                                 
 H      -7.238385       1.008944      -2.072446                                 
 C      -0.328331      -2.243405       3.761522                                 
 C      -0.859129      -0.818881       3.588834                                 
 C       0.163894       0.230982       4.027266                                 
 C       0.672891      -0.022685       5.447671                                 
 C       1.203689      -1.447209       5.620359                                 
 C       0.180674      -2.497077       5.181923                                 
 H       0.493905      -2.394867       3.065345                                 
 H      -1.134626      -2.942788       3.551068                                 
 H      -1.092180      -0.659653       2.538178                                 
 H      -1.755150      -0.705755       4.195471                                 
 H       1.009793       0.198804       3.343871                                 
 H      -0.308529       1.210583       3.997072                                 
 H      -0.149345       0.128777       6.143848                                 
 H       1.479186       0.676698       5.658125                                 
 H       2.099710      -1.560336       5.013721                                 
 H       1.436748      -1.606442       6.671011                                 
 H      -0.665232      -2.464903       5.865311                                 
 H       0.653089      -3.476673       5.212121                                 
                                                                                
      -6.132859      -1.899157       2.721305      -0.120000                    
      -6.660284      -2.292734       1.340050      -0.120000                    
      -6.038276      -3.598018       0.839675      -0.120000                    
      -4.509309      -3.556481       0.878881      -0.120000                    
      -3.981889      -3.162908       2.260128      -0.120000                    
      -4.603889      -1.857613       2.760504      -0.120000                    
      -6.479465      -2.631440       3.447456       0.060000                    
      -6.513989      -0.911057       2.970465       0.060000                    
      -7.738408      -2.423408       1.403838       0.060000                    
      -6.417251      -1.499568       0.636139       0.060000                    
      -6.380373      -4.412174       1.475102       0.060000                    
      -6.355321      -3.762649      -0.187977       0.060000                    
      -4.162700      -2.824191       0.152724       0.060000                    
      -4.128178      -4.544581       0.629720       0.060000                    
      -4.224915      -3.956063       2.964040       0.060000                    
      -2.903758      -3.032222       2.196341       0.060000                    
      -4.261792      -1.043457       2.125077       0.060000                    
      -4.286838      -1.692994       3.788158       0.060000                    
       4.269573       7.072856      -2.835464      -0.120000                    
       3.807581       7.433334      -4.248805      -0.120000                    
       2.567132       6.640643      -4.665878      -0.120000                    
       2.765757       5.133246      -4.494849      -0.120000                    
       3.227748       4.772768      -3.081508      -0.120000                    
       4.468197       5.565460      -2.664435      -0.120000                    
       3.514276       7.406570      -2.127067       0.060000                    
       5.216187       7.572523      -2.641051       0.060000                    
       3.567743       8.494155      -4.276247       0.060000                    
       4.613048       7.210406      -4.945349       0.060000                    
       1.729807       6.953567      -4.045741       0.060000                    
       2.358631       6.847179      -5.713553       0.060000                    
       3.521047       4.799528      -5.203253       0.060000                    
       1.819143       4.633580      -4.689261       0.060000                    
       2.422281       4.995696      -2.384963       0.060000                    
       3.467586       3.711948      -3.054066       0.060000                    
       5.305516       5.252532      -3.284579       0.060000                    
       4.676699       5.358924      -1.616760       0.060000                    
       1.269860      -7.237192       2.547951      -0.120000                    
       0.735147      -6.275045       3.610612      -0.120000                    
      -0.717762      -5.876453       3.343765      -0.120000                    
      -0.911796      -5.331295       1.927389      -0.120000                    
      -0.377082      -6.293442       0.864729      -0.120000                    
       1.075825      -6.692024       1.131586      -0.120000                    
       0.735786      -8.181189       2.633326       0.060000                    
       2.333446      -7.388510       2.719541       0.060000                    
       0.788904      -6.764012       4.581007       0.060000                    
       1.348550      -5.376500       3.606329       0.060000                    
      -1.347604      -6.754847       3.467544       0.060000                    
      -1.002748      -5.104495       4.055471       0.060000                    
      -0.377723      -4.387289       1.842025       0.060000                    
      -1.975378      -5.179981       1.755813       0.060000                    
      -0.990479      -7.191983       0.869018       0.060000                    
      -0.430849      -5.804477      -0.105655       0.060000                    
       1.705667      -5.813631       1.007807       0.060000                    
       1.360818      -7.463988       0.419876       0.060000                    
       1.907639      -2.853405      -5.537846      -0.120000                    
       1.967537      -2.479057      -4.055600      -0.120000                    
       2.691233      -1.150192      -3.828911      -0.120000                    
       4.075318      -1.132671      -4.480834      -0.120000                    
       4.015428      -1.507025      -5.963084      -0.120000                    
       3.291726      -2.835893      -6.189779      -0.120000                    
       1.271940      -2.135845      -6.052289       0.060000                    
       1.494084      -3.855723      -5.626908       0.060000                    
       0.951076      -2.390181      -3.678030       0.060000                    
       2.501710      -3.261487      -3.520680       0.060000                    
       2.093280      -0.350549      -4.260930       0.060000                    
       2.809279      -0.996854      -2.758277       0.060000                    
       4.711010      -1.850242      -3.966391       0.060000                    
       4.488875      -0.130362      -4.391781       0.060000                    
       3.481248      -0.724606      -6.498004       0.060000                    
       5.031876      -1.595899      -6.340655       0.060000                    
       3.889686      -3.635532      -5.757754       0.060000                    
       3.173680      -2.989231      -7.260413       0.060000                    
      -3.621269       2.316722       3.481407      -0.120000                    
      -4.324954       3.603523       3.045696      -0.120000                    
      -4.883133       4.383382       4.237858      -0.120000                    
      -5.776745       3.513478       5.124312      -0.120000                    
      -5.073056       2.226674       5.560037      -0.120000                    
      -4.514874       1.446822       4.367868      -0.120000                    
      -2.727664       2.581954       4.042465       0.060000                    
      -3.354219       1.748502       2.592949       0.060000                    
      -3.607064       4.232838       2.523933       0.060000                    
      -5.148638       3.342627       2.384516       0.060000                    
      -4.050335       4.748255       4.835313       0.060000                    
      -5.472250       5.217562       3.862541       0.060000                    
      -6.670349       3.248245       4.563254       0.060000                    
      -6.043781       4.081697       6.012773       0.060000                    
      -4.249368       2.487567       6.221200       0.060000                    
      -5.790943       1.597366       6.081793       0.060000                    
      -5.347679       1.081944       3.770406       0.060000                    
      -3.925757       0.612642       4.743185       0.060000                    
      -4.340906      -2.641463      -3.346847      -0.120000                    
      -4.014704      -4.089354      -2.975199      -0.120000                    
      -2.507966      -4.322807      -2.847788      -0.120000                    
      -1.749599      -3.866747      -4.095947      -0.120000                    
      -2.075796      -2.418851      -4.467589      -0.120000                    
      -3.582534      -2.185398      -4.594999      -0.120000                    
      -4.061292      -1.997701      -2.515581       0.060000                    
      -5.408544      -2.564472      -3.541240       0.060000                    
      -4.483804      -4.317396      -2.020456       0.060000                    
      -4.403407      -4.743867      -3.752506       0.060000                    
      -2.140069      -3.760096      -1.992432       0.060000                    
      -2.332010      -5.386715      -2.703479       0.060000                    
      -2.029199      -4.510510      -4.927211       0.060000                    
      -0.681954      -3.943742      -3.901558       0.060000                    
      -1.687085      -1.764343      -3.690286       0.060000                    
      -1.606695      -2.190809      -5.422331       0.060000                    
      -3.950425      -2.748122      -5.450354       0.060000                    
      -3.758489      -1.121491      -4.739309       0.060000                    
      -1.104730       5.318906      -5.678790      -0.120000                    
      -1.917780       5.658437      -6.929620      -0.120000                    
      -2.000586       7.167678      -7.167116      -0.120000                    
      -2.508956       7.915250      -5.932722      -0.120000                    
      -1.695908       7.575712      -4.681885      -0.120000                    
      -1.613100       6.066479      -4.444396      -0.120000                    
      -0.067582       5.598328      -5.851781       0.060000                    
      -1.181619       4.249607      -5.493775       0.060000                    
      -1.439809       5.196681      -7.790932       0.060000                    
      -2.926447       5.270320      -6.804630       0.060000                    
      -1.006634       7.536165      -7.411887       0.060000                    
      -2.685346       7.352686      -7.992090       0.060000                    
      -3.546106       7.635821      -5.759724       0.060000                    
      -2.432067       8.984550      -6.117737       0.060000                    
      -0.687239       7.963835      -4.806882       0.060000                    
      -2.173877       8.037476      -3.820580       0.060000                    
      -2.607053       5.697991      -4.199625       0.060000                    
      -0.928340       5.881470      -3.619422       0.060000                    
       2.004606      -8.235957      -5.326581      -0.120000                    
       1.479932      -9.468604      -4.587537      -0.120000                    
       0.237310      -9.150901      -3.753297      -0.120000                    
       0.468272      -7.970712      -2.807324      -0.120000                    
       0.992946      -6.738067      -3.546369      -0.120000                    
       2.235562      -7.055773      -4.380616      -0.120000                    
       1.272921      -7.942509      -6.076368       0.060000                    
       2.949666      -8.491214      -5.801172       0.060000                    
       1.221217     -10.229605      -5.320696       0.060000                    
       2.260343      -9.834225      -3.923502       0.060000                    
      -0.579504      -8.901588      -4.427261       0.060000                    
      -0.016720     -10.027079      -3.160407       0.060000                    
       1.199958      -8.264162      -2.057537       0.060000                    
      -0.476794      -7.715460      -2.332739       0.060000                    
       0.212528      -6.372449      -4.210410       0.060000                    
       1.251659      -5.977073      -2.813203       0.060000                    
       3.052375      -7.305086      -3.706650       0.060000                    
       2.489598      -6.179592      -4.973498       0.060000                    
       8.820827       7.759152      -1.541242      -0.120000                    
       7.790754       6.943463      -2.325174      -0.120000                    
       8.448595       5.853965      -3.174397      -0.120000                    
       9.544081       6.417501      -4.081726      -0.120000                    
      10.574152       7.233190      -3.297793      -0.120000                    
       9.916313       8.322697      -2.448576      -0.120000                    
       9.283224       7.113077      -0.797974       0.060000                    
       8.310942       8.588413      -1.055519       0.060000                    
       7.111099       6.471035      -1.619153       0.060000                    
       7.243890       7.614881      -2.983828       0.060000                    
       8.893001       5.116029      -2.509857       0.060000                    
       7.686031       5.390465      -3.796796       0.060000                    
       9.081682       7.063576      -4.824993       0.060000                    
      10.053966       5.588241      -4.567449       0.060000                    
      11.121017       6.561773      -2.639139       0.060000                    
      11.253801       7.705632      -4.003817       0.060000                    
       9.471906       9.060626      -3.113111       0.060000                    
      10.678875       8.786189      -1.826171       0.060000                    
       4.224830       8.850787       5.281663      -0.120000                    
       3.870313       8.978694       3.798793      -0.120000                    
       3.378729      10.384041       3.446205      -0.120000                    
       2.229541      10.833211       4.350985      -0.120000                    
       2.584052      10.705300       5.833848      -0.120000                    
       3.075636       9.299953       6.186437      -0.120000                    
       5.092710       9.474016       5.486672       0.060000                    
       4.449589       7.808307       5.496753       0.060000                    
       4.758740       8.762994       3.209064       0.060000                    
       3.081489       8.266123       3.567173       0.060000                    
       4.205835      11.081123       3.562722       0.060000                    
       3.029454      10.381820       2.415804       0.060000                    
       1.361655      10.209977       4.145969       0.060000                    
       2.004782      11.875691       4.135894       0.060000                    
       3.372882      11.417876       6.065475       0.060000                    
       1.695631      10.921005       6.423584       0.060000                    
       2.248532       8.602878       6.069913       0.060000                    
       3.424924       9.302174       7.216840       0.060000                    
      10.424472      -2.211867      -1.931996      -0.120000                    
      10.966682      -2.166183      -3.361958      -0.120000                    
      10.115415      -1.275840      -4.269486      -0.120000                    
       8.636103      -1.664448      -4.229650      -0.120000                    
       8.093891      -1.710131      -2.799688      -0.120000                    
       8.945157      -2.600482      -1.892154      -0.120000                    
      10.537100      -1.226035      -1.485756       0.060000                    
      10.992758      -2.948510      -1.368001       0.060000                    
      11.979639      -1.769975      -3.337254       0.060000                    
      10.966344      -3.176194      -3.766377       0.060000                    
      10.213195      -0.244897      -3.935955       0.060000                    
      10.474118      -1.377348      -5.291638       0.060000                    
       8.523481      -2.650284      -4.675894       0.060000                    
       8.067824      -0.927810      -4.793649       0.060000                    
       8.094237      -0.700125      -2.395273       0.060000                    
       7.080942      -2.106345      -2.824396       0.060000                    
       8.847379      -3.631417      -2.225691       0.060000                    
       8.586456      -2.498967      -0.870008       0.060000                    
       5.257608      -4.765299       4.385393      -0.120000                    
       5.755939      -4.750532       5.831878      -0.120000                    
       6.416211      -6.073837       6.224098      -0.120000                    
       5.508468      -7.272957       5.942885      -0.120000                    
       5.010143      -7.287720       4.496407      -0.120000                    
       4.349864      -5.964420       4.104180      -0.120000                    
       6.118108      -4.817462       3.721718       0.060000                    
       4.694624      -3.852594       4.202255       0.060000                    
       6.486819      -3.951930       5.939703       0.060000                    
       4.907341      -4.576843       6.490214       0.060000                    
       7.332572      -6.189041       5.649085       0.060000                    
       6.639386      -6.048882       7.288657       0.060000                    
       4.647967      -7.220794       6.606560       0.060000                    
       6.071451      -8.185662       6.126022       0.060000                    
       5.858740      -7.461409       3.838070       0.060000                    
       4.279256      -8.086327       4.388575       0.060000                    
       3.433503      -5.849206       4.679204       0.060000                    
       4.126696      -5.989371       3.039628       0.060000                    
      -5.045168      -2.120487       6.859794      -0.120000                    
      -3.539952      -2.369241       6.744215      -0.120000                    
      -3.129221      -3.701633       7.374374      -0.120000                    
      -3.622124      -3.829535       8.817181      -0.120000                    
      -5.127340      -3.580781       8.932758      -0.120000                    
      -5.538071      -2.248389       8.302600      -0.120000                    
      -5.566682      -2.853527       6.247976       0.060000                    
      -5.259298      -1.113819       6.507235       0.060000                    
      -3.270101      -2.385239       5.690457       0.060000                    
      -3.014465      -1.565892       7.256210       0.060000                    
      -3.558377      -4.510829       6.787332       0.060000                    
      -2.043248      -3.767722       7.370864       0.060000                    
      -3.100611      -3.096496       9.428998       0.060000                    
      -3.407994      -4.836204       9.169740       0.060000                    
      -5.652827      -4.384131       8.420764       0.060000                    
      -5.397192      -3.564784       9.986517       0.060000                    
      -5.108915      -1.439195       8.889643       0.060000                    
      -6.624044      -2.182301       8.306110       0.060000                    
       7.042070      11.711019      -1.549176      -0.120000                    
       6.258595      10.399282      -1.468818      -0.120000                    
       4.746601      10.633164      -1.481204      -0.120000                    