%nprocshared=4                                                                       
%mem=8GB                                                                             
#P pop=chelpg cam-b3lyp/gen scf=qc int=ultrafine charge td(nstates=10)               
                                                                                     
pNA CAM-B3LYP def2-TZVPD Single point - solvent def2-SV(P)                           
                                                                                     
0 1                                                                                  
 C       1.386341       0.000000       0.000000                                 
 C       0.000000       0.000000       0.000000                                 
 C      -0.712907       1.188984      -0.000000                                 
 C      -0.035635       2.384357       0.000131                                 
 C       1.365534       2.410943       0.000833                                 
 C       2.063239       1.195576       0.000133                                 
 H       1.918972      -0.938700       0.000854                                 
 H      -1.791888       1.163049       0.000837                                 
 H      -0.586620       3.315732      -0.002113                                 
 H       3.145392       1.202000      -0.002090                                 
 N      -0.713906      -1.260429       0.001744                                 
 O      -1.931758      -1.232720       0.002551                                 
 O      -0.063858      -2.290656       0.002518                                 
 N       2.037885       3.598040      -0.033161                                 
 H       1.540331       4.445798       0.174764                                 
 H       3.020819       3.607257       0.174736                                 
 C       5.323604      -1.537994       1.582093                                 
 C       3.968884      -1.892984       2.198253                                 
 C       3.468891      -3.262170       1.733171                                 
 C       3.452845      -3.378809       0.207671                                 
 C       4.807557      -3.023825      -0.408479                                 
 C       5.307548      -1.654631       0.056596                                 
 H       6.073957      -2.220788       1.975072                                 
 H       5.569356      -0.512563       1.849794                                 
 H       4.073256      -1.910345       3.281025                                 
 H       3.243387      -1.138622       1.901160                                 
 H       4.129835      -4.028034       2.133497                                 
 H       2.456142      -3.406620       2.103535                                 
 H       2.702483      -2.696020      -0.185298                                 
 H       3.207093      -4.404248      -0.060023                                 
 H       5.533052      -3.778179      -0.111393                                 
 H       4.703184      -3.006457      -1.491258                                 
 H       4.646615      -0.888769      -0.343732                                 
 H       6.320297      -1.510182      -0.313768                                 
 C      -5.044660       0.801121      -0.039969                                 
 C      -5.214990      -0.093512      -1.269384                                 
 C      -6.519452      -0.891663      -1.221046                                 
 C      -6.662675      -1.677542       0.083876                                 
 C      -6.492345      -0.782909       1.313290                                 
 C      -5.187892       0.015237       1.264963                                 
 H      -5.808379       1.575566      -0.065013                                 
 H      -4.053154       1.247846      -0.069720                                 
 H      -5.224358       0.534423      -2.157730                                 
 H      -4.381541      -0.791666      -1.309540                                 
 H      -7.354211      -0.198812      -1.303066                                 
 H      -6.528559      -1.593536      -2.052302                                 
 H      -5.898955      -2.451995       0.108927                                 
 H      -7.654181      -2.124275       0.113634                                 
 H      -7.325804      -0.084754       1.353449                                 
 H      -6.482978      -1.410844       2.201637                                 
 H      -4.353124      -0.677617       1.346980                                 
 H      -5.178772       0.717121       2.096215                                 
 C       7.835263       2.351655      -2.670391                                 
 C       6.344427       2.477119      -2.990714                                 
 C       5.635603       3.451335      -2.047570                                 
 C       5.878716       3.105128      -0.577172                                 
 C       7.369555       2.979677      -0.256851                                 
 C       8.078370       2.005457      -1.199985                                 
 H       8.318876       3.301530      -2.888448                                 
 H       8.258345       1.562264      -3.287947                                 
 H       6.237295       2.840451      -4.010546                                 
 H       5.883242       1.497003      -2.888880                                 
 H       6.013193       4.454185      -2.235660                                 
 H       4.566154       3.408060      -2.242690                                 
 H       5.395097       2.155270      -0.359114                                 
 H       5.455634       3.894526       0.040376                                 
 H       7.830731       3.959797      -0.358681                                 
 H       7.476675       2.616341       0.762978                                 
 H       7.700777       1.002600      -1.011901                                 
 H       9.147825       2.048723      -1.004874                                 
 C       2.040242       6.080179      -4.201070                                 
 C       1.112507       5.001960      -3.637477                                 
 C       1.865090       3.709088      -3.316283                                 
 C       2.671484       3.202509      -4.513817                                 
 C       3.599228       4.280728      -5.077413                                 
 C       2.846636       5.573601      -5.398603                                 
 H       2.732930       6.385950      -3.419804                                 
 H       1.435838       6.926024      -4.521705                                 
 H       0.659278       5.376919      -2.722301                                 
 H       0.344756       4.782857      -4.376541                                 
 H       2.549263       3.900579      -2.492369                                 
 H       1.141688       2.946105      -3.036508                                 
 H       1.978795       2.896746      -5.295091                                 
 H       3.275896       2.356670      -4.193192                                 
 H       4.366979       4.499837      -4.338356                                 
 H       4.052447       3.905777      -5.992593                                 
 H       2.162459       5.382103      -6.222524                                 
 H       3.570046       6.336582      -5.678382                                 
 C      -1.520787       1.060101       5.622209                                 
 C      -2.098394      -0.071553       4.769814                                 
 C      -1.003857      -0.867106       4.055634                                 
 C      -0.070310       0.038345       3.249602                                 
 C       0.507300       1.170013       4.101997                                 
 C      -0.587240       1.965552       4.816178                                 
 H      -0.957422       0.623518       6.444219                                 
 H      -2.342755       1.661140       6.005341                                 
 H      -2.652415      -0.747147       5.418050                                 
 H      -2.759450       0.359727       4.021056                                 
 H      -0.415605      -1.396602       4.802122                                 
 H      -1.475130      -1.573834       3.375763                                 
 H      -0.633673       0.474942       2.427593                                 
 H       0.751657      -0.562695       2.866471                                 
 H       1.168353       0.738718       4.850756                                 
 H       1.061321       1.845599       3.453768                                 
 H      -1.175489       2.495054       4.069696                                 
 H      -0.115968       2.672286       5.496041                                 
 C      -2.744552      -0.098010      -4.328097                                 
 C      -3.081823       0.739838      -5.563083                                 
 C      -1.944579       1.692505      -5.937375                                 
 C      -1.512919       2.562498      -4.755104                                 
 C      -1.175660       1.724645      -3.520121                                 
 C      -2.312896       0.771977      -3.145833                                 
 H      -1.929446      -0.773729      -4.578403                                 
 H      -3.628156      -0.663216      -4.039468                                 
 H      -3.262614       0.068540      -6.399893                                 
 H      -3.972520       1.327804      -5.351730                                 
 H      -1.090977       1.103053      -6.265267                                 
 H      -2.285494       2.342127      -6.740816                                 
 H      -2.328028       3.238210      -4.504804                                 
 H      -0.629323       3.127700      -5.043723                                 
 H      -0.284960       1.136679      -3.731461                                 
 H      -0.994869       2.395944      -2.683312                                 
 H      -3.166497       1.361429      -2.817940                                 
 H      -1.971980       0.122347      -2.342384                                 
                                                                                
       4.464314       3.896616       5.187462      -0.120000                    
       4.227399       3.453924       3.742181      -0.120000                    
       4.603815       1.987182       3.523039      -0.120000                    
       6.029822       1.685564       3.988378      -0.120000                    
       6.266734       2.128248       5.433653      -0.120000                    
       5.890313       3.594999       5.652805      -0.120000                    
       3.768257       3.364619       5.832576       0.060000                    
       4.296316       4.969389       5.254504       0.060000                    
       3.172560       3.580869       3.508119       0.060000                    
       4.836658       4.071086       3.085212       0.060000                    
       3.914456       1.363206       4.087891       0.060000                    
       4.530391       1.764448       2.460627       0.060000                    
       6.725867       2.217556       3.343262       0.060000                    
       6.197821       0.612790       3.921337       0.060000                    
       5.657478       1.511093       6.090629       0.060000                    
       7.321577       2.001318       5.667716       0.060000                    
       6.579681       4.218973       5.087949       0.060000                    
       5.963742       3.817731       6.715200       0.060000                    
       3.823846      -1.149527      -4.425492      -0.120000                    
       3.661616      -2.453263      -5.209620      -0.120000                    
       2.235023      -2.633860      -5.732385      -0.120000                    
       1.195068      -2.502170      -4.617896      -0.120000                    
       1.357294      -1.198440      -3.833775      -0.120000                    
       2.783890      -1.017837      -3.311003      -0.120000                    
       3.705421      -0.313857      -5.112001       0.060000                    
       4.815803      -1.133438      -3.979052       0.060000                    
       4.343050      -2.436141      -6.057528       0.060000                    
       3.898832      -3.286576      -4.551618       0.060000                    
       2.040071      -1.869761      -6.481905       0.060000                    
       2.149049      -3.625022      -6.172787       0.060000                    
       1.313492      -3.337832      -3.931394       0.060000                    
       0.203111      -2.518259      -5.064337       0.060000                    
       1.120081      -0.365114      -4.491778       0.060000                    
       0.675863      -1.215548      -2.985868       0.060000                    
       2.978841      -1.781929      -2.561491       0.060000                    
       2.869864      -0.026675      -2.870601       0.060000                    
       4.143068       8.051863      -0.919896      -0.120000                    
       3.392212       8.043840       0.413182      -0.120000                    
       4.343014       7.922254       1.605745      -0.120000                    
       5.282497       6.722260       1.469917      -0.120000                    
       6.033354       6.730282       0.136839      -0.120000                    
       5.082552       6.851869      -1.055724      -0.120000                    
       4.733004       8.963942      -0.981186       0.060000                    
       3.416184       8.017571      -1.728581       0.060000                    
       2.836698       8.974749       0.504950       0.060000                    
       2.711255       7.195416       0.423574       0.060000                    
       4.942536       8.828089       1.666197       0.060000                    
       3.751664       7.800086       2.510765       0.060000                    
       4.692561       5.810189       1.531200       0.060000                    
       6.009381       6.756551       2.278601       0.060000                    
       6.714311       7.578707       0.126447       0.060000                    
       6.588867       5.799375       0.045072       0.060000                    
       4.483029       5.946034      -1.116176       0.060000                    
       5.673902       6.974037      -1.960744       0.060000                    
      -2.747228      -6.152278      -4.200107      -0.120000                    
      -1.573079      -5.194031      -3.990241      -0.120000                    
      -1.842896      -4.195335      -2.862900      -0.120000                    
      -3.163409      -3.448722      -3.062277      -0.120000                    
      -4.337545      -4.406957      -3.272145      -0.120000                    
      -4.067738      -5.405652      -4.399484      -0.120000                    
      -2.837113      -6.789446      -3.322846       0.060000                    
      -2.551023      -6.754004      -5.085028       0.060000                    
      -0.690349      -5.776393      -3.734910       0.060000                    
      -1.406615      -4.640931      -4.912183       0.060000                    
      -1.889170      -4.738174      -1.921215       0.060000                    
      -1.032951      -3.469239      -2.840481       0.060000                    
      -3.073512      -2.811542      -3.939541       0.060000                    
      -3.359601      -2.846985      -2.177359       0.060000                    
      -4.504022      -4.960063      -2.350208       0.060000                    
      -5.220288      -3.824600      -3.527480       0.060000                    
      -4.021464      -4.862812      -5.341169       0.060000                    
      -4.877684      -6.131748      -4.421903       0.060000                    
       1.683378       6.333964       3.817853      -0.120000                    
       0.604017       5.256373       3.938924      -0.120000                    
      -0.791816       5.807205       3.640252      -0.120000                    
      -1.115028       7.039786       4.487171      -0.120000                    
      -0.035670       8.117378       4.366087      -0.120000                    
       1.360163       7.566539       4.664765      -0.120000                    
       1.756180       6.637594       2.775689       0.060000                    
       2.629745       5.917796       4.156640       0.060000                    
       0.823916       4.462571       3.228206       0.060000                    
       0.614012       4.866809       4.954718       0.060000                    
      -0.838266       6.085406       2.589511       0.060000                    
      -1.524907       5.033471       3.858502       0.060000                    
      -1.187830       6.736164       5.529329       0.060000                    
      -2.061395       7.455954       4.148384       0.060000                    
      -0.045665       8.506934       3.350300       0.060000                    
      -0.255569       8.911172       5.076811       0.060000                    
       1.406616       7.288344       5.715513       0.060000                    
       2.093254       8.340272       4.446515       0.060000                    
      -3.276827      -8.569683      -0.247179      -0.120000                    
      -3.118472      -7.072919       0.027649      -0.120000                    
      -1.649276      -6.646249       0.047924      -0.120000                    
      -0.818528      -7.496829       1.010929      -0.120000                    
      -0.976882      -8.993600       0.736108      -0.120000                    
      -2.446078      -9.420262       0.715827      -0.120000                    
      -2.947138      -8.773311      -1.263795       0.060000                    
      -4.325224      -8.835688      -0.130090       0.060000                    
      -3.630461      -6.519331      -0.756569       0.060000                    
      -3.558962      -6.848873       0.996891       0.060000                    
      -1.241175      -6.757158      -0.954458       0.060000                    
      -1.593396      -5.607065       0.365230       0.060000                    
      -1.148216      -7.293208       2.027552       0.060000                    
       0.229867      -7.230838       0.893840       0.060000                    
      -0.536392      -9.217638      -0.233140       0.060000                    
      -0.464883      -9.547190       1.520324       0.060000                    
      -2.854170      -9.309362       1.718212       0.060000                    
      -2.501961     -10.459460       0.398521       0.060000                    
      -0.352143       8.735455      -2.165178      -0.120000                    
      -0.146970       9.945852      -1.252161      -0.120000                    
      -0.420654       9.609782       0.215210      -0.120000                    
      -1.797596       8.971768       0.410036      -0.120000                    
      -2.002769       7.761369      -0.502982      -0.120000                    
      -1.729098       8.097435      -1.970357      -0.120000                    
       0.410206       7.993851      -1.936011       0.060000                    
      -0.263038       9.060986      -3.199448       0.060000                    
       0.883787      10.281185      -1.345602       0.060000                    
      -0.829826      10.734367      -1.561400       0.060000                    
       0.338427       8.910388       0.559106       0.060000                    
      -0.377948      10.528712       0.796135       0.060000                    
      -2.559955       9.713373       0.180872       0.060000                    
      -1.886715       8.646232       1.444301       0.060000                    
      -1.319913       6.972849      -0.193736       0.060000                    
      -3.033538       7.426032      -0.409544       0.060000                    
      -2.488176       8.796837      -2.314245       0.060000                    
      -1.771803       7.178498      -2.551275       0.060000                    
      -4.449367      -3.943185       2.748220      -0.120000                    
      -3.621411      -4.083830       4.027125      -0.120000                    
      -3.480079      -5.544343       4.460631      -0.120000                    
      -4.836972      -6.241780       4.576746      -0.120000                    
      -5.664925      -6.101128       3.297847      -0.120000                    
      -5.806256      -4.640615       2.864341      -0.120000                    
      -3.897061      -4.392042       1.925347       0.060000                    
      -4.617380      -2.885403       2.557366       0.060000                    
      -2.628706      -3.677564       3.845114       0.060000                    
      -4.115171      -3.531028       4.823552       0.060000                    
      -2.881035      -6.070340       3.720290       0.060000                    
      -2.990273      -5.572923       5.431735       0.060000                    
      -5.389278      -5.792923       5.399619       0.060000                    
      -4.668960      -7.299562       4.767600       0.060000                    
      -5.171167      -6.653936       2.501414       0.060000                    
      -6.657633      -6.507401       3.479852       0.060000                    
      -6.405304      -4.114625       3.604677       0.060000                    
      -6.296066      -4.612042       1.893232       0.060000                    
       2.226620      -6.405439       4.353062      -0.120000                    
       1.033177      -5.465077       4.173208      -0.120000                    
       0.021216      -5.598927       5.312958      -0.120000                    
      -0.418454      -7.049458       5.521850      -0.120000                    
       0.774977      -7.989804       5.701722      -0.120000                    
       1.786933      -7.855989       4.561979      -0.120000                    
       2.793483      -6.085049       5.224680       0.060000                    
       2.846521      -6.355180       3.460437       0.060000                    
       1.398112      -4.440476       4.150871       0.060000                    
       0.536250      -5.709176       3.236634       0.060000                    
       0.481767      -5.239614       6.230793       0.060000                    
      -0.855303      -5.001307       5.071564       0.060000                    
      -0.985321      -7.369861       4.650261       0.060000                    
      -1.038360      -7.099724       6.414498       0.060000                    
       1.271912      -7.745733       6.638307       0.060000                    
       0.410039      -9.014425       5.724065       0.060000                    
       1.326394      -8.215289       3.644142       0.060000                    
       2.663454      -8.453593       4.803373       0.060000                    
      -4.424898       5.069253       5.060380      -0.120000                    
      -5.270353       6.340554       5.159982      -0.120000                    
      -6.602543       6.202252       4.420299      -0.120000                    
      -6.409276       5.754676       2.970012      -0.120000                    
      -5.563817       4.483382       2.870417      -0.120000                    
      -4.231629       4.621670       3.610100      -0.120000                    
      -4.927989       4.273503       5.605686       0.060000                    
      -3.447923       5.266373       5.496501       0.060000                    
      -5.474653       6.540908       6.209634       0.060000                    
      -4.712400       7.164517       4.720173       0.060000                    
      -7.210579       5.461154       4.934772       0.060000                    
      -7.103139       7.168233       4.422238       0.060000                    
      -5.906194       6.550422       2.424716       0.060000                    
      -7.386257       5.557567       2.533901       0.060000                    
      -6.121769       3.659420       3.310225       0.060000                    
      -5.359526       4.283023       1.820774       0.060000                    
      -3.623593       5.362769       3.095627       0.060000                    
      -3.731034       3.655698       3.608155       0.060000                    
      -6.989576       2.599828      -5.324741      -0.120000                    
      -6.403276       3.690922      -6.222867      -0.120000                    
      -5.158317       4.332554      -5.606928      -0.120000                    
      -5.417005       4.837536      -4.185991      -0.120000                    
      -6.003305       3.746443      -3.287866      -0.120000                    
      -7.248264       3.104810      -3.903805      -0.120000                    
      -6.284342       1.772776      -5.276771       0.060000                    
      -7.932892       2.267013      -5.752505       0.060000                    
      -6.129127       3.245830      -7.176944       0.060000                    
      -7.156044       4.462737      -6.368940       0.060000                    
      -4.364821       3.589050      -5.572615       0.060000                    
      -4.859055       5.175459      -6.226349       0.060000                    
      -6.122241       5.664582      -4.233969       0.060000                    
      -4.473689       5.170351      -3.758227       0.060000                    
      -5.250536       2.974627      -3.141792       0.060000                    
      -6.277454       4.191534      -2.333789       0.060000                    
      -8.041763       3.848308      -3.938125       0.060000                    
      -7.547526       2.261905      -3.284384       0.060000                    
       2.528678      -6.712932      -5.202398      -0.120000                    
       3.859913      -6.875562      -5.938751      -0.120000                    
       4.812561      -7.817236      -5.199343      -0.120000                    
       5.011708      -7.401634      -3.740357      -0.120000                    
       3.680474      -7.239004      -3.004004      -0.120000                    
       2.727826      -6.297329      -3.743412      -0.120000                    
       2.000932      -7.664079      -5.224010       0.060000                    
       1.944368      -5.945642      -5.705778       0.060000                    
       3.662844      -7.285958      -6.926837       0.060000                    
       4.332222      -5.899100      -6.023036       0.060000                    
       4.394898      -8.821573      -5.220827       0.060000                    
       5.777921      -7.799256      -5.700814       0.060000                    
       5.539455      -6.450487      -3.718745       0.060000                    
       5.596018      -8.168923      -3.236977       0.060000                    
       3.208164      -8.215466      -2.919719       0.060000                    
       3.877542      -6.828609      -2.015918       0.060000                    
       3.145492      -5.292986      -3.721921       0.060000                    
       1.762465      -6.315310      -3.241941       0.060000                    
       8.439599      -1.653659      -3.625049      -0.120000                    
       9.715712      -2.319662      -4.143550      -0.120000                    
       9.411242      -3.485059      -5.087024      -0.120000                    
       8.451878      -4.496975      -4.457229      -0.120000                    
       7.175765      -3.830964      -3.938735      -0.120000                    
       7.480235      -2.665566      -2.995261      -0.120000                    
       7.936099      -1.169985      -4.459468       0.060000                    
       8.712811      -0.918007      -2.871534       0.060000                    
      10.299911      -1.578112      -4.684282       0.060000                    
      10.280056      -2.698450      -3.294037       0.060000                    
       8.954634      -3.089687      -5.991901       0.060000                    
      10.343849      -3.992065      -5.325512       0.060000                    
       8.955380      -4.980641      -3.622803       0.060000                    
       8.178669      -5.232619      -5.210738       0.060000                    
       6.611420      -3.452177      -4.788249       0.060000                    
       6.591565      -4.572515      -3.398003       0.060000                    
       7.936842      -3.060947      -2.090376       0.060000                    
       6.547627      -2.158568      -2.756765       0.060000                    
       9.833516       4.508849       2.632883      -0.120000                    
       8.646086       5.466232       2.752792      -0.120000                    
       8.892910       6.557518       3.796418      -0.120000                    