%nprocshared=4                                                                       
%mem=8GB                                                                             
#P pop=chelpg cam-b3lyp/gen scf=qc int=ultrafine charge td(nstates=10)               
                                                                                     
pNA CAM-B3LYP def2-TZVPD Single point - solvent def2-SV(P)                           
                                                                                     
0 1                                                                                  
 C       1.386341       0.000000       0.000000                                 
 C       0.000000       0.000000       0.000000                                 
 C      -0.712907       1.188984      -0.000000                                 
 C      -0.035635       2.384357       0.000131                                 
 C       1.365534       2.410943       0.000833                                 
 C       2.063239       1.195576       0.000133                                 
 H       1.918972      -0.938700       0.000854                                 
 H      -1.791888       1.163049       0.000837                                 
 H      -0.586620       3.315732      -0.002113                                 
 H       3.145392       1.202000      -0.002090                                 
 N      -0.713906      -1.260429       0.001744                                 
 O      -1.931758      -1.232720       0.002551                                 
 O      -0.063858      -2.290656       0.002518                                 
 N       2.037885       3.598040      -0.033161                                 
 H       1.540331       4.445798       0.174764                                 
 H       3.020819       3.607257       0.174736                                 
 C       1.930296       6.734633       2.214113                                 
 C       2.568566       7.139319       0.883808                                 
 C       1.611777       7.957896       0.014614                                 
 C       0.270469       7.249380      -0.185327                                 
 C      -0.367807       6.844707       1.144983                                 
 C       0.588981       6.026124       2.014169                                 
 H       1.764703       7.631450       2.807364                                 
 H       2.606631       6.058588       2.732859                                 
 H       3.451359       7.740677       1.090401                                 
 H       2.844852       6.237193       0.342035                                 
 H       1.430884       8.913669       0.501864                                 
 H       2.072138       8.111922      -0.959089                                 
 H       0.436062       6.352564      -0.778578                                 
 H      -0.405874       7.925432      -0.704075                                 
 H      -0.644095       7.746827       1.686749                                 
 H      -1.250602       6.243343       0.938382                                 
 H       0.769881       5.070346       1.526921                                 
 H       0.128619       5.872097       2.987873                                 
 C       3.691528       0.221652      -3.999754                                 
 C       3.337666      -1.170603      -3.473102                                 
 C       4.096036      -1.506815      -2.187465                                 
 C       5.606330      -1.321430      -2.347583                                 
 C       5.960180       0.070827      -2.874232                                 
 C       5.201816       0.407033      -4.159865                                 
 H       3.322920       0.964017      -3.295007                                 
 H       3.219878       0.356284      -4.970813                                 
 H       2.270173      -1.202913      -3.265637                                 
 H       3.596998      -1.905708      -4.232069                                 
 H       3.746889      -0.847779      -1.395404                                 
 H       3.898695      -2.545033      -1.928892                                 
 H       5.974938      -2.063794      -3.052330                                 
 H       6.077974      -1.456067      -1.376519                                 
 H       5.700854       0.805926      -2.115262                                 
 H       7.027685       0.103136      -3.081700                                 
 H       5.550961      -0.251991      -4.951935                                 
 H       5.399157       1.445251      -4.418439                                 
 C       8.118738       2.983821       0.591250                                 
 C       6.648322       2.617252       0.380433                                 
 C       6.088203       1.801056       1.547109                                 
 C       6.947280       0.572127       1.851653                                 
 C       8.417696       0.938696       2.062469                                 
 C       8.977807       1.754898       0.895791                                 
 H       8.188397       3.673205       1.430043                                 
 H       8.493402       3.453807      -0.315601                                 
 H       6.070924       3.534741       0.289129                                 
 H       6.564289       2.026370      -0.529222                                 
 H       6.059964       2.433461       2.431940                                 
 H       5.085026       1.468561       1.288782                                 
 H       6.877619      -0.117262       1.012851                                 
 H       6.572616       0.102141       2.758502                                 
 H       8.501722       1.529585       2.972122                                 
 H       8.995092       0.021201       2.153766                                 
 H       9.006046       1.122493       0.010960                                 
 H       9.980993       2.087387       1.154121                                 
 C       5.964183       4.483679      -3.085809                                 
 C       6.221943       5.197389      -4.414372                                 
 C       5.953654       6.700689      -4.318803                                 
 C       4.557674       7.000091      -3.768790                                 
 C       4.299913       6.286381      -2.440227                                 
 C       4.568205       4.783087      -2.535789                                 
 H       6.702814       4.820171      -2.361343                                 
 H       6.052638       3.411054      -3.244470                                 
 H       7.262569       5.047040      -4.693666                                 
 H       5.563477       4.774082      -5.169940                                 
 H       6.691796       7.144018      -3.653782                                 
 H       6.035067       7.132311      -5.314185                                 
 H       3.819035       6.663605      -4.493258                                 
 H       4.469211       8.072721      -3.610132                                 
 H       4.958380       6.709689      -1.684660                                 
 H       3.259280       6.436738      -2.160935                                 
 H       3.830053       4.339758      -3.200819                                 
 H       4.486783       4.351467      -1.540417                                 
 C       3.860116       0.960100       4.846854                                 
 C       2.544140       0.271142       4.480271                                 
 C       1.774198       1.041047       3.405370                                 
 C       1.565902       2.507514       3.788927                                 
 C       2.881880       3.196477       4.155518                                 
 C       3.651815       2.426566       5.230424                                 
 H       4.526413       0.916665       3.987877                                 
 H       4.301524       0.438602       5.693540                                 
 H       2.766394      -0.724643       4.102662                                 
 H       1.924981       0.206831       5.372551                                 
 H       2.339923       1.001492       2.476910                                 
 H       0.800174       0.574388       3.273914                                 
 H       0.899614       2.550948       4.647914                                 
 H       1.124495       3.028999       2.942248                                 
 H       3.501040       3.260776       3.263246                                 
 H       2.659626       4.192261       4.533127                                 
 H       3.086097       2.466127       6.158878                                 
 H       4.625846       2.893231       5.361875                                 
 C       0.842663       3.427566      -3.763520                                 
 C       0.340957       4.872134      -3.811878                                 
 C      -1.013606       5.031874      -3.118605                                 
 C      -2.052702       4.046011      -3.656458                                 
 C      -1.550989       2.601436      -3.608098                                 
 C      -0.196425       2.441697      -4.301371                                 
 H       1.063268       3.170548      -2.729620                                 
 H       1.741656       3.351206      -4.371368                                 
 H       1.065872       5.508979      -3.309431                                 
 H       0.235655       5.168988      -4.853252                                 
 H      -0.882457       4.852220      -2.053643                                 
 H      -1.374086       6.044168      -3.288900                                 
 H      -2.273305       4.303034      -4.690350                                 
 H      -2.951701       4.122366      -3.048604                                 
 H      -1.445694       2.304589      -2.566726                                 
 H      -2.275904       1.964592      -4.110546                                 
 H      -0.327583       2.621357      -5.366335                                 
 H       0.164047       1.429409      -4.131078                                 
                                                                                
      -2.772248      -5.487492       2.067592      -0.120000                    
      -2.964343      -4.493024       0.920828      -0.120000                    
      -4.430373      -4.088757       0.752362      -0.120000                    
      -5.348467      -5.305109       0.615987      -0.120000                    
      -5.156372      -6.299577       1.762751      -0.120000                    
      -3.690351      -6.703855       1.931215      -0.120000                    
      -2.998456      -4.984620       3.005475       0.060000                    
      -1.739411      -5.829177       2.062166       0.060000                    
      -2.379745      -3.600425       1.133073       0.060000                    
      -2.623331      -4.956811      -0.002374       0.060000                    
      -4.736445      -3.518431       1.626837       0.060000                    
      -4.522467      -3.481265      -0.145492       0.060000                    
      -5.122267      -5.807992      -0.321898       0.060000                    
      -6.381311      -4.963429       0.621419       0.060000                    
      -5.497392      -5.835801       2.685951       0.060000                    
      -5.740973      -7.192182       1.550498       0.060000                    
      -3.384279      -7.274180       1.056740       0.060000                    
      -3.598255      -7.311342       2.829077       0.060000                    
      -3.205010      -2.062878      -3.016403      -0.120000                    
      -3.312329      -1.733894      -4.506752      -0.120000                    
      -3.459776      -2.993617      -5.362541      -0.120000                    
      -2.353945      -4.012226      -5.078690      -0.120000                    
      -2.246626      -4.341210      -3.588340      -0.120000                    
      -2.099177      -3.081482      -2.732544      -0.120000                    
      -4.153804      -2.477736      -2.682689       0.060000                    
      -2.981790      -1.147001      -2.473345       0.060000                    
      -4.185763      -1.104097      -4.661773       0.060000                    
      -2.409692      -1.209322      -4.812906       0.060000                    
      -4.420850      -3.453271      -5.141945       0.060000                    
      -3.409462      -2.709128      -6.411480       0.060000                    
      -1.405154      -3.597368      -5.412390       0.060000                    
      -2.577178      -4.928102      -5.621744       0.060000                    
      -3.149261      -4.865777      -3.282179       0.060000                    
      -1.373189      -4.971002      -3.433311       0.060000                    
      -1.138103      -2.621827      -2.953139       0.060000                    
      -2.149498      -3.365964      -1.683606       0.060000                    
      -3.651153       0.133871       5.746423      -0.120000                    
      -2.614552      -0.323596       4.718257      -0.120000                    
      -3.007782       0.071246       3.293325      -0.120000                    
      -4.417808      -0.402847       2.935443      -0.120000                    
      -5.454401       0.054613       3.963610      -0.120000                    
      -5.061177      -0.340234       5.388548      -0.120000                    
      -3.648700       1.221231       5.782525       0.060000                    
      -3.382365      -0.276553       6.717441       0.060000                    
      -1.659974       0.140579       4.956782       0.060000                    
      -2.530148      -1.407136       4.768025       0.060000                    
      -2.974254       1.155580       3.211201       0.060000                    
      -2.302287      -0.381627       2.599856       0.060000                    
      -4.420253      -1.490214       2.899343       0.060000                    
      -4.686596       0.007559       1.964425       0.060000                    
      -5.538815       1.138154       3.913833       0.060000                    
      -6.408989      -0.409561       3.725076       0.060000                    
      -5.094715      -1.424567       5.470663       0.060000                    
      -5.766677       0.112645       6.082002       0.060000                    
       1.461967      -3.731516       3.193060      -0.120000                    
       0.346341      -4.263560       4.094856      -0.120000                    
       0.661931      -4.059457       5.578032      -0.120000                    
       2.028496      -4.633391       5.957664      -0.120000                    
       3.144120      -4.101353       5.055860      -0.120000                    
       2.828532      -4.305449       3.572691      -0.120000                    
       1.500660      -2.648557       3.289937       0.060000                    
       1.241025      -4.010741       2.165055       0.060000                    
      -0.573937      -3.733401       3.859063       0.060000                    
       0.226666      -5.328707       3.908259       0.060000                    
       0.661995      -2.992328       5.789820       0.060000                    
      -0.101995      -4.561240       6.168224       0.060000                    
       1.989817      -5.716351       5.860783       0.060000                    
       2.249435      -4.354171       6.985660       0.060000                    
       3.263811      -3.036201       5.242460       0.060000                    
       4.064411      -4.631512       5.291648       0.060000                    
       2.828474      -5.372591       3.360898       0.060000                    
       3.592463      -3.803679       2.982493       0.060000                    
      -5.022658       5.873844       0.760124      -0.120000                    
      -5.129653       5.625776      -0.745830      -0.120000                    
      -6.078726       4.470335      -1.070286      -0.120000                    
      -5.714672       3.196983      -0.304141      -0.120000                    
      -5.607670       3.445045       1.201815      -0.120000                    
      -4.658597       4.600486       1.526271      -0.120000                    
      -5.983019       6.234828       1.122154       0.060000                    
      -4.249091       6.618409       0.935743       0.060000                    
      -5.506305       6.528996      -1.221117       0.060000                    
      -4.141143       5.381769      -1.129123       0.060000                    
      -7.089967       4.763690      -0.796510       0.060000                    
      -6.021750       4.262673      -2.136756       0.060000                    
      -4.754306       2.835988      -0.666177       0.060000                    
      -6.488231       2.452412      -0.479758       0.060000                    
      -6.596187       3.689059       1.585106       0.060000                    
      -5.231018       2.541826       1.677102       0.060000                    
      -3.647363       4.307138       1.252493       0.060000                    
      -4.715580       4.808154       2.592739       0.060000                    
       5.896233       5.723436       3.129565      -0.120000                    
       6.915424       6.545855       2.338526      -0.120000                    
       8.150553       6.885983       3.175074      -0.120000                    
       7.779105       7.554667       4.500160      -0.120000                    
       6.759913       6.732249       5.291199      -0.120000                    
       5.524787       6.392126       4.454658      -0.120000                    
       6.326705       4.747008       3.341560       0.060000                    
       4.995059       5.616318       2.529610       0.060000                    
       7.230647       5.968529       1.471958       0.060000                    
       6.443345       7.473691       2.022419       0.060000                    
       8.689688       5.965585       3.389195       0.060000                    
       8.779004       7.567721       2.605803       0.060000                    
       7.348635       8.531101       4.288174       0.060000                    
       8.680281       7.661790       5.100123       0.060000                    
       7.231995       5.804418       5.607315       0.060000                    
       6.444693       7.309579       6.157774       0.060000                    
       4.985652       7.312524       4.240538       0.060000                    
       4.896342       5.710392       5.023924       0.060000                    
      -6.436725      -0.901013      -1.931275      -0.120000                    
      -7.486217      -0.828408      -0.820339      -0.120000                    
      -7.902702      -2.217943      -0.333732      -0.120000                    
      -8.349906      -3.118925      -1.486628      -0.120000                    
      -7.300414      -3.191530      -2.597564      -0.120000                    
      -6.883930      -1.801994      -3.084171      -0.120000                    
      -5.515618      -1.302132      -1.513747       0.060000                    
      -6.270171       0.101975      -2.318325       0.060000                    
      -7.066775      -0.277443       0.018770       0.060000                    
      -8.365727      -0.316978      -1.205764       0.060000                    
      -7.052269      -2.682478       0.160833       0.060000                    
      -8.730901      -2.108392       0.363313       0.060000                    
      -9.271020      -2.717812      -1.904150       0.060000                    
      -8.516464      -4.121912      -1.099564       0.060000                    
      -6.420904      -3.702960      -2.212139       0.060000                    
      -7.719857      -3.742495      -3.436673       0.060000                    
      -7.734370      -1.337453      -3.578738       0.060000                    
      -6.055737      -1.911551      -3.781210       0.060000                    
      -0.530059     -10.480893      -1.737805      -0.120000                    
      -1.757590      -9.735950      -2.266152      -0.120000                    
      -1.464321      -8.255962      -2.520359      -0.120000                    
      -0.863538      -7.571154      -1.291071      -0.120000                    
       0.363999      -8.316104      -0.762722      -0.120000                    
       0.070725      -9.796097      -0.508509      -0.120000                    
       0.223179     -10.510222      -2.522293       0.060000                    
      -0.827773     -11.490412      -1.462612       0.060000                    
      -2.066397     -10.195063      -3.202873       0.060000                    
      -2.553870      -9.810879      -1.528623       0.060000                    
      -0.756165      -8.178064      -3.342606       0.060000                    
      -2.396075      -7.755889      -2.776241       0.060000                    
      -1.616769      -7.541831      -0.506581       0.060000                    
      -0.565817      -6.561642      -1.566262       0.060000                    
       1.160280      -8.241175      -1.500251       0.060000                    
       0.672807      -7.856991       0.173999       0.060000                    
      -0.637433      -9.873984       0.313730       0.060000                    
       1.002479     -10.296152      -0.252627       0.060000                    
       7.330649      -3.345007       1.254475      -0.120000                    
       8.197197      -4.260282       0.387152      -0.120000                    
       7.363507      -5.313733      -0.345096      -0.120000                    
       6.472499      -6.107095       0.612841      -0.120000                    
       5.605946      -5.191826       1.480170      -0.120000                    
       6.439632      -4.138380       2.212410      -0.120000                    
       6.695840      -2.747821       0.603347       0.060000                    
       7.983165      -2.700656       1.839796       0.060000                    
       8.714801      -3.651695      -0.351298       0.060000                    
       8.915108      -4.768546       1.027421       0.060000                    
       6.730330      -4.811374      -1.073335       0.060000                    
       8.038461      -6.005159      -0.845196       0.060000                    
       7.107305      -6.704287       1.263961       0.060000                    
       5.819982      -6.751446       0.027520       0.060000                    
       4.888028      -4.683556       0.839899       0.060000                    
       5.088337      -5.800406       2.218604       0.060000                    
       7.072817      -4.640728       2.940651       0.060000                    
       5.764687      -3.446944       2.712512       0.060000                    
      -0.001505       3.379940       8.103192      -0.120000                    
       0.744062       4.507695       7.386769      -0.120000                    
      -0.202519       5.397775       6.578842      -0.120000                    
      -1.073030       4.585359       5.618022      -0.120000                    
      -1.818602       3.457644       6.334444      -0.120000                    
      -0.872036       2.567541       7.142352      -0.120000                    
      -0.641274       3.816552       8.867239       0.060000                    
       0.728929       2.714196       8.557946       0.060000                    
       1.246370       5.120738       8.131997       0.060000                    
       1.471332       4.067336       6.707924       0.060000                    
      -0.851907       5.931648       7.269424       0.060000                    
       0.391656       6.101209       5.999338       0.060000                    
      -0.433284       4.148764       4.853969       0.060000                    
      -1.803481       5.251126       5.163257       0.060000                    
      -2.545890       3.897981       7.013284       0.060000                    
      -2.320928       2.844579       5.589211       0.060000                    
      -0.222645       2.033674       6.451778       0.060000                    
      -1.466214       1.864107       7.721870       0.060000                    
       1.273030      -6.167369      -4.498336      -0.120000                    
       1.985345      -5.203380      -5.449189      -0.120000                    
       1.960315      -5.701929      -6.895504      -0.120000                    
       2.496415      -7.129636      -7.019106      -0.120000                    
       1.784116      -8.093620      -6.068250      -0.120000                    
       1.809138      -7.595065      -4.621935      -0.120000                    
       0.211989      -6.172393      -4.738808       0.060000                    
       1.426831      -5.825480      -3.477031       0.060000                    
       1.484792      -4.238383      -5.405396       0.060000                    
       3.021770      -5.105566      -5.133075       0.060000                    
       0.932418      -5.684472      -7.251520       0.060000                    
       2.580490      -5.044089      -7.500766       0.060000                    
       3.557465      -7.124601      -6.778632       0.060000                    
       2.342620      -7.471520      -8.040417       0.060000                    
       0.747678      -8.191433      -6.384358       0.060000                    
       2.284656      -9.058617      -6.112038       0.060000                    
       2.837035      -7.612522      -4.265920       0.060000                    
       1.188957      -8.252911      -4.016668       0.060000                    
      -4.534702      -5.059650       6.241846      -0.120000                    
      -4.250303      -5.859886       7.514470      -0.120000                    
      -3.739629      -4.969579       8.649174      -0.120000                    
      -2.535890      -4.128148       8.220261      -0.120000                    
      -2.820292      -3.327912       6.947650      -0.120000                    
      -3.330968      -4.218221       5.812946      -0.120000                    
      -5.374688      -4.394264       6.429958       0.060000                    
      -4.776107      -5.754843       5.440619       0.060000                    
      -5.172037      -6.339528       7.836839       0.060000                    
      -3.492925      -6.608683       7.292374       0.060000                    
      -4.541298      -4.299904       8.953333       0.060000                    
      -3.441630      -5.603803       9.481443       0.060000                    
      -1.695908      -4.793535       8.032162       0.060000                    
      -2.294490      -3.432956       9.021502       0.060000                    
      -3.577674      -2.579122       7.169739       0.060000                    
      -1.898559      -2.848270       6.625282       0.060000                    
      -2.529297      -4.887895       5.508788       0.060000                    
      -3.628962      -3.583996       4.980663       0.060000                    
       3.032676      10.896845      -3.064949      -0.120000                    
       1.790517      10.696851      -2.194360      -0.120000                    
       0.782424      11.835254      -2.364028      -0.120000                    
       1.423484      13.206577      -2.141535      -0.120000                    
       2.665630      13.406573      -3.012121      -0.120000                    
       3.673723      12.268169      -2.842453      -0.120000                    
       2.741731      10.814533      -4.110017       0.060000                    
       3.760450      10.128078      -2.814178       0.060000                    
       1.311753       9.762926      -2.480958       0.060000                    
       2.099158      10.658285      -1.151799       0.060000                    
       0.383002      11.798132      -3.375302       0.060000                    
      -0.016695      11.703103      -1.637646       0.060000                    
       1.714422      13.288883      -1.096462       0.060000                    
       0.695710      13.975345      -2.392307       0.060000                    
       2.356997      13.445132      -4.054680       0.060000                    
       3.144401      14.340491      -2.725521       0.060000                    
       4.073152      12.305285      -1.831177       0.060000                    
       4.472841      12.400320      -3.568835       0.060000                    
      -4.792892       7.220649       4.887240      -0.120000                    
      -3.698486       8.056220       4.220159      -0.120000                    
      -2.619416       8.487061       5.215653      -0.120000                    