%nprocshared=4                                                                       
%mem=8GB                                                                             
#P pop=chelpg cam-b3lyp/gen scf=qc int=ultrafine charge td(nstates=10)               
                                                                                     
pNA CAM-B3LYP def2-TZVPD Single point - solvent def2-SV(P)                           
                                                                                     
0 1                                                                                  
 C       1.386341       0.000000       0.000000                                 
 C       0.000000       0.000000       0.000000                                 
 C      -0.712907       1.188984      -0.000000                                 
 C      -0.035635       2.384357       0.000131                                 
 C       1.365534       2.410943       0.000833                                 
 C       2.063239       1.195576       0.000133                                 
 H       1.918972      -0.938700       0.000854                                 
 H      -1.791888       1.163049       0.000837                                 
 H      -0.586620       3.315732      -0.002113                                 
 H       3.145392       1.202000      -0.002090                                 
 N      -0.713906      -1.260429       0.001744                                 
 O      -1.931758      -1.232720       0.002551                                 
 O      -0.063858      -2.290656       0.002518                                 
 N       2.037885       3.598040      -0.033161                                 
 H       1.540331       4.445798       0.174764                                 
 H       3.020819       3.607257       0.174736                                 
 C       6.401474       0.506499      -1.347183                                 
 C       6.563932      -0.991625      -1.082379                                 
 C       6.566919      -1.805588      -2.377945                                 
 C       5.342854      -1.506420      -3.245803                                 
 C       5.180400      -0.008284      -3.510613                                 
 C       5.177413       0.805679      -2.215047                                 
 H       7.289372       0.866793      -1.862425                                 
 H       6.285003       1.017464      -0.393837                                 
 H       7.508843      -1.153381      -0.568040                                 
 H       5.734846      -1.327143      -0.462944                                 
 H       7.462818      -1.556754      -2.942815                                 
 H       6.562761      -2.863508      -2.123860                                 
 H       4.454961      -1.866712      -2.730569                                 
 H       5.459338      -2.017384      -4.199153                                 
 H       6.009492       0.327221      -4.130038                                 
 H       4.235486       0.153460      -4.024946                                 
 H       4.281510       0.556842      -1.650169                                 
 H       5.181568       1.863597      -2.469123                                 
 C       5.310633      -4.319889       1.349002                                 
 C       4.563340      -4.481361       0.023702                                 
 C       3.110188      -4.013181       0.124389                                 
 C       2.371027      -4.683286       1.284374                                 
 C       3.118319      -4.521813       2.609675                                 
 C       4.571472      -4.989994       2.508987                                 
 H       5.408312      -3.258260       1.565944                                 
 H       6.292981      -4.777223       1.252225                                 
 H       5.068303      -3.887059      -0.734839                                 
 H       4.571231      -5.533284      -0.254027                                 
 H       3.101872      -2.936788       0.282268                                 
 H       2.599576      -4.262400      -0.803465                                 
 H       2.273344      -5.744916       1.067441                                 
 H       1.388678      -4.225952       1.381151                                 
 H       3.110429      -3.469890       2.887403                                 
 H       2.613358      -5.116116       3.368215                                 
 H       4.579788      -6.066377       2.351110                                 
 H       5.082084      -4.740775       3.436841                                 
 C       1.793812       9.535086      -0.329730                                 
 C       2.428510       8.165792      -0.580923                                 
 C       1.473895       7.216264      -1.307644                                 
 C       0.125958       7.100720      -0.593016                                 
 C      -0.508744       8.470011      -0.341815                                 
 C       0.445875       9.419541       0.384897                                 
 H       1.638497      10.027269      -1.287443                                 
 H       2.467351      10.121857       0.291267                                 
 H       3.317131       8.301577      -1.193704                                 
 H       2.694751       7.724876       0.377408                                 
 H       1.303209       7.596717      -2.312493                                 
 H       1.930502       6.229631      -1.350213                                 
 H       0.281268       6.608524       0.364704                                 
 H      -0.547581       6.513939      -1.214015                                 
 H      -0.774986       8.910927      -1.300146                                 
 H      -1.397361       8.334229       0.270958                                 
 H       0.616570       9.039077       1.389749                                 
 H      -0.010736      10.406162       0.427473                                 
 C       0.360248       4.258870       5.099388                                 
 C      -0.165561       3.812410       3.733685                                 
 C      -0.643523       4.995222       2.888997                                 
 C      -1.657694       5.862013       3.638138                                 
 C      -1.131880       6.308475       5.003833                                 
 C      -0.653923       5.125672       5.848533                                 
 H       1.269074       4.837903       4.949715                                 
 H       0.570402       3.374529       5.697107                                 
 H       0.636589       3.306265       3.200784                                 
 H      -1.002530       3.134664       3.887972                                 
 H       0.216928       5.609694       2.632753                                 
 H      -1.114396       4.610357       1.986847                                 
 H      -2.566520       5.282981       3.787812                                 
 H      -1.867848       6.746364       3.040423                                 
 H      -0.294915       6.986220       4.849555                                 
 H      -1.934030       6.814620       5.536734                                 
 H      -1.514374       4.511189       6.104774                                 
 H      -0.183040       5.510526       6.750684                                 
 C       5.367701       2.991768       2.468642                                 
 C       6.786066       3.496938       2.740372                                 
 C       7.115715       3.503415       4.234478                                 
 C       6.069480       4.266878       5.049063                                 
 C       4.651116       3.761708       4.777333                                 
 C       4.321467       3.755231       3.283227                                 
 H       5.316358       1.938608       2.736770                                 
 H       5.148489       3.123001       1.411132                                 
 H       7.491462       2.843338       2.231580                                 
 H       6.871915       4.513024       2.361038                                 
 H       7.148669       2.474917       4.587679                                 
 H       8.082708       3.981824       4.375059                                 
 H       6.120832       5.320037       4.780940                                 
 H       6.288692       4.135644       6.106573                                 
 H       4.565267       2.745622       5.156667                                 
 H       3.945720       4.415307       5.286124                                 
 H       4.288513       4.783729       2.930026                                 
 H       3.354473       3.276831       3.142648                                 
 C      -0.619303      -3.910025      -4.996342                                 
 C       0.751732      -4.119421      -5.642302                                 
 C       1.888860      -3.996476      -4.626017                                 
 C       1.818659      -2.683788      -3.843151                                 
 C       0.447624      -2.474393      -3.197191                                 
 C      -0.689505      -2.597327      -4.213473                                 
 H      -0.810585      -4.733713      -4.311792                                 
 H      -1.373295      -3.888048      -5.780269                                 
 H       0.781904      -5.115398      -6.078935                                 
 H       0.891648      -3.364892      -6.413513                                 
 H       1.818474      -4.824355      -3.923672                                 
 H       2.836752      -4.033193      -5.158790                                 
 H       2.009940      -1.860091      -4.527698                                 
 H       2.572650      -2.705765      -3.059224                                 
 H       0.307707      -3.228922      -2.425980                                 
 H       0.417455      -1.478413      -2.760566                                 
 H      -0.619114      -1.769457      -4.915829                                 
 H      -1.637392      -2.560619      -3.680711                                 
                                                                                
      -3.343723       2.955850      -5.307165      -0.120000                    
      -3.354181       2.937428      -3.777329      -0.120000                    
      -3.187002       1.522344      -3.220060      -0.120000                    
      -4.208249       0.548777      -3.811913      -0.120000                    
      -4.197787       0.567191      -5.341759      -0.120000                    
      -4.364957       1.982284      -5.899021      -0.120000                    
      -2.351769       2.671072      -5.651570       0.060000                    
      -3.586010       3.961427      -5.644461       0.060000                    
      -2.532496       3.552450      -3.416562       0.060000                    
      -4.304981       3.337276      -3.431272       0.060000                    
      -2.187501       1.168487      -3.463838       0.060000                    
      -3.322918       1.555276      -2.141068       0.060000                    
      -5.200199       0.833557      -3.467515       0.060000                    
      -3.965962      -0.456809      -3.474618       0.060000                    
      -3.246987       0.167353      -5.687813       0.060000                    
      -5.019467      -0.047823      -5.702511       0.060000                    
      -5.364467       2.336133      -5.655251       0.060000                    
      -4.229054       1.949351      -6.978009       0.060000                    
       1.952667      -1.973953       5.282419      -0.120000                    
       0.784243      -0.986311       5.298006      -0.120000                    
       0.749225      -0.120038       4.037297      -0.120000                    
       2.086783       0.578514       3.784350      -0.120000                    
       3.255198      -0.409126       3.768760      -0.120000                    
       3.290225      -1.275400       5.029472      -0.120000                    
       1.784031      -2.699596       4.489518       0.060000                    
       1.998493      -2.473604       6.247711       0.060000                    
      -0.145242      -1.548275       5.359600       0.060000                    
       0.890164      -0.336037       6.163804       0.060000                    
       0.522548      -0.756317       3.184441       0.060000                    
      -0.021636       0.638227       4.157845       0.060000                    
       2.255419       1.304158       4.577251       0.060000                    
       2.040948       1.078167       2.819055       0.060000                    
       3.149286      -1.059402       2.902966       0.060000                    
       4.184692       0.152836       3.707170       0.060000                    
       3.516902      -0.639122       5.882329       0.060000                    
       4.061077      -2.033664       4.908920       0.060000                    
      -2.923598      -7.862041       0.796775      -0.120000                    
      -2.946682      -7.049814      -0.499610      -0.120000                    
      -1.541864      -6.632944      -0.939797      -0.120000                    
      -0.782234      -5.911311       0.175177      -0.120000                    
      -0.759145      -6.723541       1.471575      -0.120000                    
      -2.163972      -7.140410       1.911759      -0.120000                    
      -2.433875      -8.813834       0.602100       0.060000                    
      -3.948512      -8.024866       1.123373       0.060000                    
      -3.390226      -7.659388      -1.283984       0.060000                    
      -3.540632      -6.152856      -0.337417       0.060000                    
      -0.985576      -7.525500      -1.218203       0.060000                    
      -1.629309      -5.961797      -1.791633       0.060000                    
      -1.271952      -4.959511       0.369868       0.060000                    
       0.242685      -5.748489      -0.151407       0.060000                    
      -0.165195      -7.620499       1.309382       0.060000                    
      -0.315601      -6.113968       2.255949       0.060000                    
      -2.720251      -6.247856       2.190168       0.060000                    
      -2.076519      -7.811559       2.763598       0.060000                    
      -6.148473       4.469178      -0.729789      -0.120000                    
      -5.801578       5.940682      -0.964867      -0.120000                    
      -4.301181       6.205350      -0.824140      -0.120000                    
      -3.751076       5.692637       0.508343      -0.120000                    
      -4.097972       4.221133       0.743421      -0.120000                    
      -5.598372       3.956463       0.602702      -0.120000                    
      -5.717397       3.877474      -1.534619       0.060000                    
      -7.231264       4.364072      -0.722407       0.060000                    
      -6.109900       6.214041      -1.971744       0.060000                    
      -6.331409       6.544331      -0.230981       0.060000                    
      -3.781119       5.697362      -1.633537       0.060000                    
      -4.130660       7.278386      -0.880850       0.060000                    
      -4.182152       6.284352       1.313175       0.060000                    
      -2.668285       5.797743       0.500961       0.060000                    
      -3.568145       3.617483       0.009543       0.060000                    
      -3.789650       3.947774       1.750298       0.060000                    
      -6.118422       4.464452       1.412094       0.060000                    
      -5.768893       2.883426       0.659412       0.060000                    
       6.091960       5.853304      -1.403270      -0.120000                    
       7.441155       5.329958      -0.906565      -0.120000                    
       8.615079       6.004301      -1.619430      -0.120000                    
       8.490266       5.913251      -3.141632      -0.120000                    
       7.141065       6.436595      -3.638328      -0.120000                    
       5.967146       5.762254      -2.925472      -0.120000                    
       5.993420       6.895830      -1.108106       0.060000                    
       5.300836       5.257342      -0.953296       0.060000                    
       7.520574       5.530206       0.159815       0.060000                    
       7.489188       4.259336      -1.094073       0.060000                    
       8.638114       7.054056      -1.334658       0.060000                    
       9.535977       5.510715      -1.316015       0.060000                    
       8.588814       4.870734      -3.436789       0.060000                    
       9.281389       6.509213      -3.591606       0.060000                    
       7.093038       7.507220      -3.450828       0.060000                    
       7.061652       6.236349      -4.704717       0.060000                    
       5.944111       4.712500      -3.210244       0.060000                    
       5.046248       6.255841      -3.228886       0.060000                    
      -5.675573      -0.227625       0.799382      -0.120000                    
      -6.053993      -1.687886       0.543720      -0.120000                    
      -7.314653      -2.095629       1.308884      -0.120000                    
      -7.203890      -1.785503       2.803070      -0.120000                    
      -6.825465      -0.325230       3.058725      -0.120000                    
      -5.564813       0.082503       2.293555      -0.120000                    
      -6.443196       0.411195       0.367716       0.060000                    
      -4.713526      -0.030657       0.331189       0.060000                    
      -6.235906      -1.818629      -0.520891       0.060000                    
      -5.230991      -2.322012       0.866564       0.060000                    
      -8.161244      -1.546878       0.901711       0.060000                    
      -7.464756      -3.166193       1.186251       0.060000                    
      -6.436266      -2.424323       3.234736       0.060000                    
      -8.165946      -1.982470       3.271258       0.060000                    
      -7.648471       0.308893       2.735890       0.060000                    
      -6.643556      -0.194489       4.123345       0.060000                    
      -4.718214      -0.466248       2.700732       0.060000                    
      -5.414716       1.153075       2.416199       0.060000                    
       0.504062       4.007513      -3.950291      -0.120000                    
       1.839059       4.748428      -4.048826      -0.120000                    
       2.612594       4.369921      -5.313505      -0.120000                    
       2.786270       2.855710      -5.447685      -0.120000                    
       1.451273       2.114795      -5.349151      -0.120000                    
       0.677738       2.493303      -4.084471      -0.120000                    
      -0.146362       4.355078      -4.750176       0.060000                    
       0.058171       4.221808      -2.981381       0.060000                    
       1.642344       5.818204      -4.068773       0.060000                    
       2.443870       4.492043      -3.181559       0.060000                    
       2.063819       4.734998      -6.179057       0.060000                    
       3.597422       4.830272      -5.269485       0.060000                    
       3.436693       2.508146      -4.647800       0.060000                    
       3.232169       2.641414      -6.416591       0.060000                    
       0.846457       2.371178      -6.216408       0.060000                    
       1.647996       1.045018      -5.329199       0.060000                    
       1.226522       2.128224      -3.218915       0.060000                    
      -0.307090       2.032952      -4.128491       0.060000                    
      -7.596243      -3.902379      -4.285392      -0.120000                    
      -6.682200      -3.192589      -3.284563      -0.120000                    
      -5.819934      -4.180055      -2.495628      -0.120000                    
      -6.661151      -5.270995      -1.829868      -0.120000                    
      -7.575194      -5.980775      -2.830694      -0.120000                    
      -8.437467      -4.993316      -3.619645      -0.120000                    
      -6.979224      -4.360542      -5.055501       0.060000                    
      -8.266173      -3.167322      -4.726398       0.060000                    
      -6.026546      -2.517569      -3.830521       0.060000                    
      -7.300230      -2.634317      -2.584543       0.060000                    
      -5.117334      -4.651567      -3.179458       0.060000                    
      -5.284549      -3.633325      -1.722210       0.060000                    
      -7.278171      -4.812833      -1.059758       0.060000                    
      -5.991222      -6.006052      -1.388861       0.060000                    
      -6.957173      -6.539057      -3.530721       0.060000                    
      -8.230858      -6.655805      -2.284743       0.060000                    
      -9.140061      -4.521807      -2.935802       0.060000                    
      -8.972846      -5.540049      -4.393049       0.060000                    
       5.586077       8.794768       1.274534      -0.120000                    
       6.454867       7.633787       1.762648      -0.120000                    
       6.901309       7.822742       3.213846      -0.120000                    
       7.578409       9.177085       3.433674      -0.120000                    
       6.709614      10.338055       2.945566      -0.120000                    
       6.263175      10.149112       1.494361      -0.120000                    
       4.647540       8.781946       1.824660       0.060000                    
       5.401319       8.667150       0.210054       0.060000                    
       5.877404       6.714334       1.693471       0.060000                    
       7.339310       7.572276       1.132024       0.060000                    
       6.026166       7.763022       3.857413       0.060000                    
       7.608948       7.035445       3.465192       0.060000                    
       8.516945       9.189908       2.883547       0.060000                    
       7.763162       9.304691       4.498160       0.060000                    
       5.825175      10.399577       3.576184       0.060000                    
       7.287077      11.257516       3.014745       0.060000                    
       7.138315      10.208818       0.850801       0.060000                    
       5.555534      10.936397       1.243022       0.060000                    
       9.299959      -2.398864       3.090131      -0.120000                    
      10.607804      -1.954160       2.432371      -0.120000                    
      10.741426      -0.430410       2.395095      -0.120000                    
       9.522235       0.236513       1.754919      -0.120000                    
       8.214389      -0.208191       2.412678      -0.120000                    
       8.080768      -1.731941       2.449954      -0.120000                    
       9.331042      -2.128442       4.143495       0.060000                    
       9.204372      -3.476968       2.979945       0.060000                    
      11.439911      -2.362280       3.002126       0.060000                    
      10.629004      -2.330074       1.411610       0.060000                    
      10.842004      -0.065188       3.414968       0.060000                    
      11.624022      -0.172955       1.813337       0.060000                    
       9.491154      -0.033909       0.701554       0.060000                    
       9.617821       1.314617       1.865104       0.060000                    
       8.193190       0.167723       3.433439       0.060000                    
       7.382283       0.199930       1.842923       0.060000                    
       7.980190      -2.097163       1.430081       0.060000                    
       7.198173      -1.989395       3.031712       0.060000                    
       3.262967       7.920007       5.662065      -0.120000                    
       3.361353       9.084476       6.649617      -0.120000                    
       2.155698      10.021503       6.552708      -0.120000                    
       1.917863      10.503507       5.120182      -0.120000                    
       1.819478       9.339036       4.132630      -0.120000                    
       3.025132       8.402011       4.229539      -0.120000                    
       2.431686       7.283170       5.957118       0.060000                    
       4.195531       7.360453       5.690268       0.060000                    
       3.408128       8.681349       7.658996       0.060000                    
       4.262173       9.652987       6.428213       0.060000                    
       1.271074       9.485952       6.890729       0.060000                    
       2.337001      10.887858       7.185379       0.060000                    
       2.749144      11.140344       4.825129       0.060000                    
       0.985299      11.063060       5.091979       0.060000                    
       0.918657       8.770527       4.354033       0.060000                    
       1.772703       9.742164       3.123250       0.060000                    
       3.909756       8.937552       3.891516       0.060000                    
       2.843825       7.535644       3.596874       0.060000                    
      -4.422355       1.318672       5.451019      -0.120000                    
      -3.059423       0.797638       5.911301      -0.120000                    
      -3.015883       0.563853       7.422763      -0.120000                    
      -3.450337       1.803474       8.207369      -0.120000                    
      -4.813263       2.324510       7.747078      -0.120000                    
      -4.856809       2.558293       6.235625      -0.120000                    
      -5.162597       0.535495       5.600571       0.060000                    
      -4.356883       1.579715       4.396919       0.060000                    
      -2.859691      -0.145785       5.407688       0.060000                    
      -2.300359       1.532379       5.651165       0.060000                    
      -3.688304      -0.255736       7.667312       0.060000                    
      -1.996035       0.312636       7.706419       0.060000                    
      -2.710095       2.586652       8.057817       0.060000                    
      -3.515814       1.542434       9.261456       0.060000                    
      -5.572333       1.589768       8.007223       0.060000                    
      -5.013000       3.267931       8.250700       0.060000                    
      -4.184387       3.377883       5.991075       0.060000                    
      -5.876652       2.809512       5.951961       0.060000                    
      -2.424715       8.365081      -3.555083      -0.120000                    
      -3.623072       7.815127      -4.331235      -0.120000                    
      -3.282867       6.517245      -5.066616      -0.120000                    
      -2.045732       6.668533      -5.954105      -0.120000                    
      -0.847379       7.218474      -5.177946      -0.120000                    
      -1.187571       8.516368      -4.442569      -0.120000                    
      -2.189694       7.677479      -2.745344       0.060000                    
      -2.687790       9.342363      -3.155873       0.060000                    
      -4.430061       7.615813      -3.629393       0.060000                    
      -3.934040       8.557980      -5.062784       0.060000                    
      -3.089264       5.740608      -4.329737       0.060000                    
      -4.128334       6.240738      -5.692999       0.060000                    
      -2.280753       7.356135      -6.763844       0.060000                    
      -1.782652       5.691238      -6.353304       0.060000                    
      -0.536399       6.475634      -4.446400       0.060000                    
      -0.040386       7.417791      -5.879797       0.060000                    
      -1.381174       9.293005      -5.179447       0.060000                    
      -0.342105       8.792875      -3.816184       0.060000                    
       4.441974      -8.331503      -4.600037      -0.120000                    
       4.288309      -6.975814      -3.907678      -0.120000                    
       3.366200      -7.055757      -2.689348      -0.120000                    