%nprocshared=4                                                                       
%mem=8GB                                                                             
#P pop=chelpg cam-b3lyp/gen scf=qc int=ultrafine charge td(nstates=10)               
                                                                                     
pNA CAM-B3LYP def2-TZVPD Single point - solvent def2-SV(P)                           
                                                                                     
0 1                                                                                  
 C       1.386341       0.000000       0.000000                                 
 C       0.000000       0.000000       0.000000                                 
 C      -0.712907       1.188984      -0.000000                                 
 C      -0.035635       2.384357       0.000131                                 
 C       1.365534       2.410943       0.000833                                 
 C       2.063239       1.195576       0.000133                                 
 H       1.918972      -0.938700       0.000854                                 
 H      -1.791888       1.163049       0.000837                                 
 H      -0.586620       3.315732      -0.002113                                 
 H       3.145392       1.202000      -0.002090                                 
 N      -0.713906      -1.260429       0.001744                                 
 O      -1.931758      -1.232720       0.002551                                 
 O      -0.063858      -2.290656       0.002518                                 
 N       2.037885       3.598040      -0.033161                                 
 H       1.540331       4.445798       0.174764                                 
 H       3.020819       3.607257       0.174736                                 
 C      -1.086157       6.653236      -0.861083                                 
 C      -2.445563       6.181884      -0.340797                                 
 C      -2.862934       6.926758       0.928838                                 
 C      -1.782701       6.865662       2.010674                                 
 C      -0.423294       7.337011       1.490379                                 
 C      -0.005922       6.592137       0.220744                                 
 H      -1.181372       7.682831      -1.199556                                 
 H      -0.788019       6.010626      -1.686747                                 
 H      -3.193420       6.360603      -1.110428                                 
 H      -2.382307       5.119375      -0.115575                                 
 H      -3.043810       7.969488       0.676623                                 
 H      -3.770515       6.469695       1.317573                                 
 H      -1.687494       5.836066       2.349135                                 
 H      -2.080838       7.508269       2.836329                                 
 H      -0.486559       8.399523       1.265155                                 
 H       0.324554       7.158295       2.260009                                 
 H       0.174944       5.549409       0.472957                                 
 H       0.901656       7.049191      -0.167989                                 
 C       5.195666       0.520188      -2.501183                                 
 C       6.307324      -0.090179      -1.645306                                 
 C       6.681334      -1.498772      -2.111114                                 
 C       5.459769      -2.415537      -2.202755                                 
 C       4.348111      -1.805170      -3.058633                                 
 C       3.974105      -0.396570      -2.592836                                 
 H       5.581308       0.686876      -3.504755                                 
 H       4.889809       1.463142      -2.053010                                 
 H       7.188211       0.544488      -1.715259                                 
 H       5.962524      -0.144867      -0.614873                                 
 H       7.138601      -1.429364      -3.095855                                 
 H       7.383677      -1.925685      -1.398205                                 
 H       5.074129      -2.582216      -1.199186                                 
 H       5.765626      -3.358491      -2.650929                                 
 H       4.692915      -1.750476      -4.089077                                 
 H       3.467225      -2.439839      -2.988689                                 
 H       3.516834      -0.465985      -1.608083                                 
 H       3.271759       0.030337      -3.305733                                 
 C       2.510852       7.788715      -4.402211                                 
 C       3.568569       8.826081      -4.020143                                 
 C       4.720967       8.204656      -3.228404                                 
 C       4.223686       7.418915      -2.013387                                 
 C       3.165961       6.381548      -2.395467                                 
 C       2.013561       7.002976      -3.187197                                 
 H       2.949130       7.090480      -5.112176                                 
 H       1.665267       8.304065      -4.852815                                 
 H       3.969670       9.265418      -4.930995                                 
 H       3.098732       9.592064      -3.406838                                 
 H       5.265776       7.526516      -3.881784                                 
 H       5.375095       9.002345      -2.882597                                 
 H       3.785399       8.117149      -1.303433                                 
 H       5.069270       6.903564      -1.562783                                 
 H       3.635805       5.615566      -3.008760                                 
 H       2.764858       5.942215      -1.484606                                 
 H       1.468753       7.681113      -2.533826                                 
 H       1.359443       6.205286      -3.533001                                 
 C       2.025885       3.233834       6.092301                                 
 C       1.996595       1.705006       6.039995                                 
 C       2.753860       1.158417       4.828069                                 
 C       2.270339       1.785972       3.519094                                 
 C       2.299641       3.314808       3.571399                                 
 C       1.542374       3.861388       4.783328                                 
 H       3.048851       3.555953       6.275193                                 
 H       1.375598       3.566705       6.898465                                 
 H       2.461135       1.317236       6.944104                                 
 H       0.960446       1.378984       5.978516                                 
 H       3.811902       1.380461       4.950101                                 
 H       2.597548       0.082954       4.776545                                 
 H       1.247373       1.463854       3.336201                                 
 H       2.920628       1.453111       2.712927                                 
 H       3.335788       3.640821       3.632881                                 
 H       1.835089       3.702571       2.667290                                 
 H       0.484322       3.639345       4.661293                                 
 H       1.698678       4.936862       4.834847                                 
 C      -6.167839       1.587484      -3.835017                                 
 C      -5.026782       2.452494      -3.295913                                 
 C      -3.679237       1.731012      -3.364044                                 
 C      -3.728153       0.359869      -2.686890                                 
 C      -4.869223      -0.505146      -3.225985                                 
 C      -6.216767       0.216334      -3.157863                                 
 H      -6.019679       1.442652      -4.903073                                 
 H      -7.109630       2.100006      -3.650791                                 
 H      -4.966014       3.359662      -3.893336                                 
 H      -5.237486       2.698094      -2.257191                                 
 H      -3.411124       1.593175      -4.409379                                 
 H      -2.932427       2.341097      -2.860226                                 
 H      -3.876327       0.504697      -1.618825                                 
 H      -2.786375      -0.152658      -2.871107                                 
 H      -4.658508      -0.750751      -4.264715                                 
 H      -4.929981      -1.412316      -2.628560                                 
 H      -6.484879       0.354170      -2.112529                                 
 H      -6.963577      -0.393749      -3.661672                                 
 C      -4.515621       1.913686       1.947331                                 
 C      -4.909300       2.568690       3.272820                                 
 C      -6.185146       3.403189       3.143014                                 
 C      -6.090267       4.422514       2.005942                                 
 C      -5.696596       3.767525       0.680458                                 
 C      -4.420743       2.933014       0.810268                                 
 H      -5.269179       1.172972       1.688211                                 
 H      -3.544998       1.437742       2.069464                                 
 H      -5.078728       1.786897       4.010173                                 
 H      -4.098872       3.220123       3.592961                                 
 H      -7.019135       2.734237       2.941570                                 
 H      -6.347299       3.937868       4.076609                                 
 H      -5.336719       5.163233       2.265069                                 
 H      -7.060890       4.898461       1.883818                                 
 H      -6.507015       3.116090       0.360319                                 
 H      -5.527158       4.549315      -0.056894                                 
 H      -3.586752       3.601963       1.011703                                 
 H      -4.258587       2.398345      -0.123329                                 
                                                                                
       0.763705      -5.198415      -1.996455      -0.120000                    
       1.620877      -5.657134      -3.177879      -0.120000                    
       2.329775      -6.982388      -2.891161      -0.120000                    
       3.129197      -6.934597      -1.587451      -0.120000                    
       2.272025      -6.475877      -0.406028      -0.120000                    
       1.563126      -5.150636      -0.692753      -0.120000                    
      -0.060965      -5.897271      -1.873161       0.060000                    
       0.384540      -4.200956      -2.208515       0.060000                    
       0.976697      -5.787860      -4.044750       0.060000                    
       2.372877      -4.896748      -3.377751       0.060000                    
       1.580584      -7.767210      -2.811043       0.060000                    
       3.013227      -7.195390      -3.710417       0.060000                    
       3.953858      -6.235741      -1.710758       0.060000                    
       3.508354      -7.932057      -1.375404       0.060000                    
       1.520014      -7.236272      -0.206156       0.060000                    
       2.916197      -6.345151       0.460831       0.060000                    
       2.312310      -4.365802      -0.772875       0.060000                    
       0.879664      -4.937632       0.126501       0.060000                    
      -4.354067      -5.032905       2.514687      -0.120000                    
      -3.553978      -4.418679       1.364236      -0.120000                    
      -2.265212      -5.194387       1.084192      -0.120000                    
      -1.415369      -5.368301       2.344565      -0.120000                    
      -2.215456      -5.982517       3.495013      -0.120000                    
      -3.504224      -5.206819       3.775060      -0.120000                    
      -4.717390      -6.009861       2.202835       0.060000                    
      -5.189673      -4.375998       2.746717       0.060000                    
      -4.169291      -4.431347       0.467125       0.060000                    
      -3.293657      -3.396000       1.628904       0.060000                    
      -2.527879      -6.179066       0.703352       0.060000                    
      -1.683534      -4.646945       0.345490       0.060000                    
      -1.052048      -4.391343       2.656426       0.060000                    
      -0.579765      -6.025205       2.112545       0.060000                    
      -2.475781      -7.005203       3.230357       0.060000                    
      -1.600137      -5.969857       4.392138       0.060000                    
      -3.241557      -4.222128       4.155907       0.060000                    
      -4.085901      -5.754248       4.513769       0.060000                    
      -1.456078      -3.668691      -4.534591      -0.120000                    
      -2.318531      -3.176150      -3.370767      -0.120000                    
      -2.998481      -4.330988      -2.632508      -0.120000                    
      -3.782901      -5.236866      -3.583856      -0.120000                    
      -2.920445      -5.729398      -4.747682      -0.120000                    
      -2.240497      -4.574557      -5.485931      -0.120000                    
      -0.616790      -4.231553      -4.131522       0.060000                    
      -1.098639      -2.805562      -5.092073       0.060000                    
      -1.682459      -2.641204      -2.668691       0.060000                    
      -3.087269      -2.514020      -3.763565       0.060000                    
      -2.233549      -4.925716      -2.137764       0.060000                    
      -3.687555      -3.917107      -1.899331       0.060000                    
      -4.622178      -4.673995      -3.986916       0.060000                    
      -4.140329      -6.099985      -3.026364       0.060000                    
      -2.151707      -6.391529      -4.354884       0.060000                    
      -3.556508      -6.264346      -5.449756       0.060000                    
      -3.005418      -3.979834      -5.980682       0.060000                    
      -1.551411      -4.988443      -6.219116       0.060000                    
       8.681293       0.932202       1.289502      -0.120000                    
       8.214940       2.254224       0.676521      -0.120000                    
       7.530188       3.153922       1.707376      -0.120000                    
       6.397514       2.429801       2.437921      -0.120000                    
       6.863883       1.107806       3.050897      -0.120000                    
       7.548612       0.208096       2.020051      -0.120000                    
       9.476933       1.140690       2.001673       0.060000                    
       9.047612       0.289245       0.492027       0.060000                    
       9.081601       2.778048       0.279036       0.060000                    
       7.506830       2.037268      -0.120482       0.060000                    
       8.270357       3.469510       2.439633       0.060000                    
       7.115516       4.018497       1.193320       0.060000                    
       5.601862       2.221321       1.725767       0.060000                    
       6.031184       3.072766       3.235413       0.060000                    
       7.571964       1.324743       3.847922       0.060000                    
       5.997195       0.583961       3.448395       0.060000                    
       6.808442      -0.107492       1.287795       0.060000                    
       7.963292      -0.656479       2.534120       0.060000                    
       0.869710       3.365263      -5.166333      -0.120000                    
       0.359256       2.635405      -6.410353      -0.120000                    
      -0.704805       1.591284      -6.065999      -0.120000                    
      -0.225164       0.618215      -4.987096      -0.120000                    
       0.285279       1.348077      -3.743068      -0.120000                    
       1.349349       2.392197      -4.087420      -0.120000                    
       0.059059       3.965079      -4.757989       0.060000                    
       1.702695       4.002885      -5.454603       0.060000                    
      -0.077273       3.366312      -7.087670       0.060000                    
       1.198047       2.132753      -6.887266       0.060000                    
      -1.591330       2.105603      -5.701086       0.060000                    
      -0.940137       1.025241      -6.964842       0.060000                    
       0.585487       0.018399      -5.395439       0.060000                    
      -1.058149      -0.019407      -4.698826       0.060000                    
      -0.553508       1.850736      -3.266166       0.060000                    
       0.721818       0.617168      -3.065748       0.060000                    
       2.235866       1.877877      -4.452345       0.060000                    
       1.584683       2.958236      -3.188586       0.060000                    
       4.638671      -5.010789       3.014167      -0.120000                    
       4.314072      -3.999942       4.115849      -0.120000                    
       4.284441      -2.564814       3.586235      -0.120000                    
       5.568762      -2.203511       2.837225      -0.120000                    
       5.893364      -3.214349       1.735541      -0.120000                    
       5.922991      -4.649486       2.265157      -0.120000                    
       3.814835      -5.027363       2.303739       0.060000                    
       4.765149      -5.991333       3.468238       0.060000                    
       3.336377      -4.238192       4.529289       0.060000                    
       5.077467      -4.069922       4.887866       0.060000                    
       3.443525      -2.463484       2.903412       0.060000                    
       4.170496      -1.885646       4.428583       0.060000                    
       6.392607      -2.186939       3.547654       0.060000                    
       5.442285      -1.222967       2.383153       0.060000                    
       5.129968      -3.144381       0.963517       0.060000                    
       6.871057      -2.976109       1.322102       0.060000                    
       6.763910      -4.750819       2.947970       0.060000                    
       6.036947      -5.328657       1.422811       0.060000                    
      -3.926997      -1.088016       6.989641      -0.120000                    
      -2.521931      -1.567347       7.359753      -0.120000                    
      -1.451234      -0.959445       6.451405      -0.120000                    
      -1.761521      -1.183487       4.970001      -0.120000                    
      -3.166589      -0.704165       4.599892      -0.120000                    
      -4.237286      -1.312067       5.508240      -0.120000                    
      -3.998592      -0.023516       7.202703       0.060000                    
      -4.650929      -1.641341       7.584024       0.060000                    
      -2.313882      -1.274423       8.386613       0.060000                    
      -2.486965      -2.650320       7.261777       0.060000                    
      -1.403498       0.111231       6.638565       0.060000                    
      -0.495286      -1.425565       6.680730       0.060000                    
      -1.689926      -2.247986       4.756940       0.060000                    
      -1.037589      -0.630162       4.375618       0.060000                    
      -3.201552       0.378818       4.697865       0.060000                    
      -3.374636      -0.997080       3.573030       0.060000                    
      -4.285022      -2.382743       5.321081       0.060000                    
      -5.193234      -0.845947       5.278914       0.060000                    
       7.145149       3.771540      -4.481281      -0.120000                    
       7.101508       5.190212      -5.052542      -0.120000                    
       8.086659       6.123293      -4.345539      -0.120000                    
       7.899088       6.110888      -2.827092      -0.120000                    
       7.942732       4.692226      -2.255835      -0.120000                    
       6.957582       3.759142      -2.962846      -0.120000                    
       8.112352       3.331922      -4.715701       0.060000                    
       6.346040       3.189252      -4.935074       0.060000                    
       7.359512       5.147912      -6.108582       0.060000                    
       6.095905       5.585493      -4.925336       0.060000                    
       9.099222       5.797042      -4.573450       0.060000                    
       7.926351       7.136743      -4.707362       0.060000                    
       6.931885       6.550506      -2.592672       0.060000                    
       8.698197       6.693175      -2.373299       0.060000                    
       8.948335       4.296945      -2.383039       0.060000                    
       7.684728       4.734527      -1.199793       0.060000                    
       5.945020       4.085392      -2.734936       0.060000                    
       7.117890       2.745692      -2.601023       0.060000                    
       6.980328       6.257298       4.152894      -0.120000                    
       5.521081       5.912771       4.457492      -0.120000                    
       4.674582       7.164640       4.696728      -0.120000                    
       5.284191       8.073142       5.766285      -0.120000                    
       6.743440       8.417680       5.461686      -0.120000                    
       7.589938       7.165812       5.222459      -0.120000                    
       7.023646       6.770788       3.194702       0.060000                    
       7.554461       5.334043       4.112536       0.060000                    
       5.107697       5.370320       3.609882       0.060000                    
       5.489174       5.295221       5.352625       0.060000                    
       4.606723       7.721811       3.764756       0.060000                    
       3.684129       6.856944       5.025348       0.060000                    
       5.240875       7.559662       6.724476       0.060000                    
       4.710059       8.996407       5.806642       0.060000                    
       6.775347       9.035228       4.566553       0.060000                    
       7.156824       8.960129       6.309295       0.060000                    
       7.657795       6.608630       6.154424       0.060000                    
       8.580390       7.473496       4.893831       0.060000                    
      -2.358680       6.889677      -6.768075      -0.120000                    
      -1.662565       6.476992      -5.469590      -0.120000                    
      -2.554591       5.590946      -4.597672      -0.120000                    
      -3.919675       6.231162      -4.337612      -0.120000                    
      -4.615789       6.643859      -5.636090      -0.120000                    
      -3.723766       7.529895      -6.508006      -0.120000                    
      -2.501737       6.003453      -7.382708       0.060000                    
      -1.729598       7.610537      -7.285909       0.060000                    
      -0.760330       5.922886      -5.719672       0.060000                    
      -1.410783       7.375049      -4.909420       0.060000                    
      -2.707029       4.642144      -5.107722       0.060000                    
      -2.058269       5.430573      -3.642844       0.060000                    
      -3.776630       7.117391      -3.722972       0.060000                    
      -4.548759       5.510304      -3.819769       0.060000                    
      -4.867573       5.745792      -6.196257       0.060000                    
      -5.518026       7.197956      -5.386005       0.060000                    
      -3.571338       8.478699      -5.997957       0.060000                    
      -4.220088       7.690269      -7.462833       0.060000                    
      -9.590451      -4.693509      -0.689325      -0.120000                    
      -9.054659      -5.323465      -1.976522      -0.120000                    
      -7.567413      -5.666782      -1.870615      -0.120000                    
      -6.731233      -4.463506      -1.430210      -0.120000                    
      -7.267025      -3.833550      -0.143013      -0.120000                    
      -8.754281      -3.490231      -0.248921      -0.120000                    
      -9.565968      -5.441580       0.100267       0.060000                    
     -10.611916      -4.361980      -0.863458       0.060000                    
      -9.609526      -6.238434      -2.173032       0.060000                    
      -9.191076      -4.616800      -2.792423       0.060000                    
      -7.445432      -6.461781      -1.138015       0.060000                    
      -7.216219      -5.995730      -2.846404       0.060000                    
      -6.755714      -3.715425      -2.219804       0.060000                    
      -5.709766      -4.795025      -1.256079       0.060000                    
      -7.130617      -4.540213       0.672887       0.060000                    
      -6.712168      -2.918579       0.053496       0.060000                    
      -8.876258      -2.695226      -0.981533       0.060000                    
      -9.105473      -3.161286       0.726858       0.060000                    
       4.192503      11.395110      -0.458191      -0.120000                    
       5.031483      10.665902       0.593133      -0.120000                    
       4.166643       9.823798       1.533288      -0.120000                    
       3.041503      10.644766       2.166617      -0.120000                    
       2.202525      11.373970       1.115284      -0.120000                    
       3.067361      12.216068       0.175141      -0.120000                    
       3.751457      10.656667      -1.124394       0.060000                    
       4.841380      12.066856      -1.016080       0.060000                    
       5.732704      10.008481       0.083528       0.060000                    
       5.568407      11.405359       1.183561       0.060000                    
       3.724407       9.009637       0.963049       0.060000                    
       4.798122       9.429348       2.326620       0.060000                    
       3.482548      11.383199       2.832823       0.060000                    
       2.392634       9.973007       2.724510       0.060000                    
       1.665599      10.634517       0.524865       0.060000                    
       1.501300      12.031384       1.624900       0.060000                    
       3.509597      13.030229       0.745380       0.060000                    
       2.435891      12.610516      -0.618190       0.060000                    
      -3.891914       4.276207       7.901327      -0.120000                    
      -4.071207       4.191227       6.384248      -0.120000                    
      -3.130241       5.142200       5.641804      -0.120000                    
      -3.247196       6.579516       6.153120      -0.120000                    
      -3.067903       6.664496       7.670197      -0.120000                    
      -4.008879       5.713525       8.412641      -0.120000                    
      -2.905202       3.895569       8.156713       0.060000                    
      -4.663276       3.674155       8.376883       0.060000                    
      -3.858856       3.172946       6.065521       0.060000                    
      -5.097597       4.456821       6.140014       0.060000                    
      -2.106841       4.803309       5.788245       0.060000                    
      -3.384812       5.127696       4.584132       0.060000                    
      -4.233917       6.960156       5.897730       0.060000                    
      -2.475834       7.181569       5.677563       0.060000                    
      -2.041522       6.398904       7.914430       0.060000                    
      -3.280253       7.682778       7.988925       0.060000                    
      -5.032278       6.052416       8.266198       0.060000                    
      -3.754308       5.728029       9.470311       0.060000                    
       2.849120      -8.674705       2.746238      -0.120000                    
       1.353029      -8.667832       2.426056      -0.120000                    
       0.882294     -10.008322       1.858181      -0.120000                    