%nprocshared=4                                                                       
%mem=8GB                                                                             
#P pop=chelpg cam-b3lyp/gen scf=qc int=ultrafine charge td(nstates=10)               
                                                                                     
pNA CAM-B3LYP def2-TZVPD Single point - solvent def2-SV(P)                           
                                                                                     
0 1                                                                                  
 C       1.386341       0.000000       0.000000                                 
 C       0.000000       0.000000       0.000000                                 
 C      -0.712907       1.188984      -0.000000                                 
 C      -0.035635       2.384357       0.000131                                 
 C       1.365534       2.410943       0.000833                                 
 C       2.063239       1.195576       0.000133                                 
 H       1.918972      -0.938700       0.000854                                 
 H      -1.791888       1.163049       0.000837                                 
 H      -0.586620       3.315732      -0.002113                                 
 H       3.145392       1.202000      -0.002090                                 
 N      -0.713906      -1.260429       0.001744                                 
 O      -1.931758      -1.232720       0.002551                                 
 O      -0.063858      -2.290656       0.002518                                 
 N       2.037885       3.598040      -0.033161                                 
 H       1.540331       4.445798       0.174764                                 
 H       3.020819       3.607257       0.174736                                 
 C       2.951616       8.778858       1.169373                                 
 C       2.895033       8.376925       2.644542                                 
 C       2.647497       6.877368       2.820864                                 
 C       1.412501       6.405719       2.050584                                 
 C       1.469090       6.807656       0.575408                                 
 C       1.716634       8.307210       0.399090                                 
 H       3.834391       8.328961       0.720047                                 
 H       3.007327       9.863538       1.106426                                 
 H       3.845108       8.629581       3.110463                                 
 H       2.083627       8.921782       3.122506                                 
 H       3.515646       6.335866       2.451141                                 
 H       2.496924       6.671895       3.878623                                 
 H       0.529727       6.855615       2.499909                                 
 H       1.356796       5.321035       2.113518                                 
 H       2.280490       6.262795       0.097451                                 
 H       0.519015       6.554991       0.109481                                 
 H       0.848477       8.848714       0.768808                                 
 H       1.867198       8.512686      -0.658674                                 
 C       7.987628       0.083371      -1.596949                                 
 C       7.633083      -0.874021      -2.736521                                 
 C       6.684283      -0.231611      -3.750491                                 
 C       5.437122       0.348968      -3.080755                                 
 C       5.791653       1.306351      -1.941186                                 
 C       6.740458       0.663945      -0.927222                                 
 H       8.577929       0.902566      -2.002028                                 
 H       8.561161      -0.461919      -0.850458                                 
 H       8.549332      -1.158413      -3.249516                                 
 H       7.148524      -1.752122      -2.314872                                 
 H       7.211812       0.572365      -4.259376                                 
 H       6.373559      -0.990742      -4.465277                                 
 H       4.846821      -0.470234      -2.675681                                 
 H       4.863590       0.894259      -3.827246                                 
 H       6.276213       2.184461      -2.362830                                 
 H       4.875405       1.590752      -1.428186                                 
 H       6.212924      -0.140035      -0.418332                                 
 H       7.051192       1.423073      -0.212432                                 
 C      -2.509447      -7.171814      -2.398331                                 
 C      -2.316742      -6.079609      -3.452289                                 
 C      -1.077667      -5.226357      -3.173456                                 
 C      -1.080871      -4.657884      -1.752961                                 
 C      -1.273576      -5.750089      -0.699003                                 
 C      -2.512645      -6.603337      -0.977844                                 
 H      -1.693688      -7.886420      -2.484966                                 
 H      -3.462928      -7.663985      -2.577962                                 
 H      -2.201751      -6.551964      -4.425529                                 
 H      -3.192018      -5.433466      -3.447488                                 
 H      -0.192923      -5.847203      -3.297478                                 
 H      -1.059674      -4.398499      -3.879162                                 
 H      -1.896624      -3.943265      -1.666329                                 
 H      -0.127390      -4.165705      -1.573326                                 
 H      -0.398300      -6.396231      -0.703805                                 
 H      -1.388566      -5.277725       0.274242                                 
 H      -3.397389      -5.982491      -0.853821                                 
 H      -2.530644      -7.431200      -0.272131                                 
 C      -4.357466       0.252606       2.116027                                 
 C      -5.466891      -0.767209       2.380819                                 
 C      -6.127978      -1.244033       1.085991                                 
 C      -6.616697      -0.075477       0.227711                                 
 C      -5.507273       0.944338      -0.037081                                 
 C      -4.846185       1.421162       1.257747                                 
 H      -3.544092      -0.246283       1.593357                                 
 H      -4.009589       0.643467       3.069842                                 
 H      -5.034706      -1.627338       2.887767                                 
 H      -6.224887      -0.301644       3.007201                                 
 H      -5.399928      -1.815103       0.513745                                 
 H      -6.981389      -1.868808       1.341004                                 
 H      -7.430077       0.423408       0.750389                                 
 H      -6.964574      -0.466338      -0.726104                                 
 H      -4.749276       0.478773      -0.663463                                 
 H      -5.939463       1.804463      -0.544022                                 
 H      -5.574241       1.992236       1.830006                                 
 H      -3.992775       2.045946       1.002739                                 
 C       1.937954      -3.122739       2.967259                                 
 C       0.630098      -3.913720       3.036292                                 
 C      -0.568505      -3.013615       3.343235                                 
 C      -0.343585      -2.167453       4.597990                                 
 C       0.964266      -1.376476       4.528965                                 
 C       2.162868      -2.276580       4.222021                                 
 H       1.899165      -2.461343       2.104285                                 
 H       2.763673      -3.824130       2.868329                                 
 H       0.464935      -4.397020       2.075725                                 
 H       0.715771      -4.659206       3.824058                                 
 H      -0.728101      -2.347019       2.498371                                 
 H      -1.443497      -3.641098       3.499354                                 
 H      -0.304802      -2.828853       5.460972                                 
 H      -1.169310      -1.466067       4.696928                                 
 H       0.878592      -0.630990       3.741199                                 
 H       1.129428      -0.893176       5.489532                                 
 H       2.322470      -2.943173       5.066879                                 
 H       3.037860      -1.649098       4.065903                                 
 C       2.283702       4.529043      -3.832893                                 
 C       2.175424       6.046479      -3.995835                                 
 C       3.332146       6.618587      -4.817852                                 
 C       4.693936       6.197651      -4.261642                                 
 C       4.802215       4.680206      -4.098704                                 
 C       3.645493       4.108099      -3.276688                                 
 H       2.147248       4.064129      -4.807019                                 
 H       1.509365       4.197137      -3.144603                                 
 H       1.241166       6.275829      -4.503849                                 
 H       2.190564       6.504124      -3.008916                                 
 H       3.246187       6.254424      -5.839422                                 
 H       3.269061       7.704574      -4.797848                                 
 H       4.830382       6.662569      -3.287520                                 
 H       5.468279       6.529561      -4.949937                                 
 H       4.787066       4.222573      -5.085623                                 
 H       5.736473       4.450866      -3.590686                                 
 H       3.731451       4.472262      -2.255117                                 
 H       3.708577       3.022112      -3.296691                                 
                                                                                
      -3.493761       8.298886       0.279584      -0.120000                    
      -4.911484       8.148157       0.834827      -0.120000                    
      -5.010432       7.009820       1.852403      -0.120000                    
      -4.471037       5.691969       1.292645      -0.120000                    
      -3.053320       5.842694       0.737409      -0.120000                    
      -2.954372       6.981031      -0.280167      -0.120000                    
      -2.838927       8.629197       1.083192       0.060000                    
      -3.510246       9.035666      -0.520675       0.060000                    
      -5.193768       9.077727       1.324498       0.060000                    
      -5.587517       7.936133       0.009165       0.060000                    
      -4.428750       7.278056       2.731783       0.060000                    
      -6.056137       6.872075       2.119300       0.060000                    
      -5.125877       5.361654       0.489043       0.060000                    
      -4.454552       4.955188       2.092904       0.060000                    
      -2.377281       6.054722       1.563064       0.060000                    
      -2.771031       4.913119       0.247726       0.060000                    
      -3.536049       6.712799      -1.159554       0.060000                    
      -1.908661       7.118772      -0.547077       0.060000                    
       5.064633      -4.754793       0.071012      -0.120000                    
       5.378189      -4.372362      -1.376875      -0.120000                    
       4.264526      -3.528975      -2.000923      -0.120000                    
       2.895408      -4.199081      -1.868883      -0.120000                    
       2.581846      -4.581524      -0.420995      -0.120000                    
       3.695515      -5.424900       0.203052      -0.120000                    
       5.069803      -3.851915       0.677994       0.060000                    
       5.826383      -5.448596       0.420150       0.060000                    
       6.300838      -3.796129      -1.392275       0.060000                    
       5.492623      -5.283586      -1.960230       0.060000                    
       4.231196      -2.567043      -1.493801       0.060000                    
       4.483560      -3.391009      -3.057680       0.060000                    
       2.890233      -5.101963      -2.475858       0.060000                    
       2.133644      -3.505279      -2.218019       0.060000                    
       2.467412      -3.670292       0.162366       0.060000                    
       1.659197      -5.157758      -0.405594       0.060000                    
       3.728831      -6.386840      -0.304072       0.060000                    
       3.476476      -5.562869       1.259816       0.060000                    
      -0.633774       1.836609       4.275004      -0.120000                    
      -1.746071       2.698036       3.673599      -0.120000                    
      -1.379635       4.183517       3.665616      -0.120000                    
      -0.957859       4.677423       5.050986      -0.120000                    
       0.154439       3.816005       5.652396      -0.120000                    
      -0.212006       2.330519       5.660368      -0.120000                    
       0.230170       1.873695       3.614794       0.060000                    
      -0.995871       0.814766       4.365604       0.060000                    
      -1.918705       2.377028       2.648530       0.060000                    
      -2.647975       2.565625       4.267474       0.060000                    
      -0.551684       4.333701       2.976007       0.060000                    
      -2.247918       4.754024       3.342636       0.060000                    
      -1.821810       4.640349       5.711196       0.060000                    
      -0.595769       5.699269       4.960381       0.060000                    
       1.056343       3.948407       5.058516       0.060000                    
       0.327064       4.137007       6.677455       0.060000                    
      -1.039957       2.180334       6.349977       0.060000                    
       0.656277       1.760012       5.983349       0.060000                    
       2.596528      -0.544115      -5.261411      -0.120000                    
       1.744931       0.503194      -4.541147      -0.120000                    
       0.664066      -0.138431      -3.668776      -0.120000                    
      -0.193356      -1.131451      -4.455980      -0.120000                    
       0.658241      -2.178760      -5.176244      -0.120000                    
       1.739097      -1.537132      -6.048620      -0.120000                    
       3.172542      -1.093661      -4.519879       0.060000                    
       3.262386      -0.034113      -5.954287       0.060000                    
       2.394064       1.102172      -3.906025       0.060000                    
       1.262276       1.131487      -5.286767       0.060000                    
       1.146947      -0.668372      -2.850465       0.060000                    
       0.018702       0.646956      -3.280988       0.060000                    
      -0.769371      -0.581905      -5.197511       0.060000                    
      -0.859223      -1.641450      -3.763109       0.060000                    
       1.140895      -2.807053      -4.430624       0.060000                    
       0.009100      -2.777734      -5.811371       0.060000                    
       1.256224      -1.007185      -6.866921       0.060000                    
       2.384461      -2.322519      -6.436408       0.060000                    
      -2.504741       5.221058      -5.506366      -0.120000                    
      -1.277604       4.548947      -4.887298      -0.120000                    
      -1.665190       3.453594      -3.891842      -0.120000                    
      -2.637104       3.964915      -2.826487      -0.120000                    
      -3.864249       4.637030      -3.445560      -0.120000                    
      -3.476658       5.732386      -4.441023      -0.120000                    
      -3.022248       4.494272      -6.128974       0.060000                    
      -2.172788       6.064739      -6.107759       0.060000                    
      -0.687178       4.101548      -5.684047       0.060000                    
      -0.694604       5.303874      -4.363973       0.060000                    
      -2.142190       2.641602      -4.436629       0.060000                    
      -0.763456       3.097918      -3.397730       0.060000                    
      -2.119596       4.691701      -2.203879       0.060000                    
      -2.969065       3.121237      -2.225098       0.060000                    
      -4.447249       3.882102      -3.968885       0.060000                    
      -4.454661       5.084430      -2.648814       0.060000                    
      -2.999663       6.544365      -3.896234       0.060000                    
      -4.378397       6.088050      -4.935133       0.060000                    
       6.160597       2.750591       3.401159      -0.120000                    
       6.091761       4.041777       4.219012      -0.120000                    
       5.860970       3.766490       5.706292      -0.120000                    
       4.641116       2.873367       5.941443      -0.120000                    
       4.709938       1.582172       5.123589      -0.120000                    
       4.940742       1.857460       3.636305      -0.120000                    
       7.054181       2.202172       3.691704       0.060000                    
       6.203461       3.009602       2.345376       0.060000                    
       7.033094       4.575470       4.106253       0.060000                    
       5.268038       4.646468       3.845486       0.060000                    
       6.740131       3.267098       6.107940       0.060000                    
       5.700582       4.714978       6.214598       0.060000                    
       3.747518       3.421786       5.650901       0.060000                    
       4.598246       2.614344       6.997228       0.060000                    
       5.533667       0.977493       5.497112       0.060000                    
       3.768612       1.048484       5.236357       0.060000                    
       4.061576       2.356857       3.234670       0.060000                    
       5.101131       0.908980       3.128006       0.060000                    
      -3.608654      -0.779062      -4.239372      -0.120000                    
      -4.440317      -2.031482      -3.955327      -0.120000                    
      -5.463505      -2.302732      -5.060105      -0.120000                    
      -6.342701      -1.082081      -5.339489      -0.120000                    
      -5.511038       0.170340      -5.623535      -0.120000                    
      -4.487850       0.441590      -4.518756      -0.120000                    
      -2.985716      -0.965789      -5.111602       0.060000                    
      -2.988326      -0.569201      -3.370613       0.060000                    
      -3.769961      -2.885477      -3.885018       0.060000                    
      -4.971597      -1.890496      -3.016434       0.060000                    
      -4.929966      -2.562888      -5.971841       0.060000                    
      -6.101732      -3.126811      -4.748186       0.060000                    
      -6.965639      -0.895352      -4.467259       0.060000                    
      -6.963029      -1.291941      -6.208248       0.060000                    
      -4.979752       0.029358      -6.562435       0.060000                    
      -6.181395       1.024335      -5.693844       0.060000                    
      -5.021383       0.701750      -3.607028       0.060000                    
      -3.849623       1.265660      -4.830680       0.060000                    
       6.657629       5.917519      -1.043708      -0.120000                    
       5.978591       6.601877       0.144351      -0.120000                    
       6.793085       7.787978       0.664711      -0.120000                    
       8.238824       7.397284       0.978056      -0.120000                    
       8.917855       6.712922      -0.209995      -0.120000                    
       8.103368       5.526824      -0.730363      -0.120000                    
       6.658241       6.604869      -1.887044       0.060000                    
       6.099977       5.016849      -1.291391       0.060000                    
       5.002813       6.962961      -0.173550       0.060000                    
       5.869106       5.876231       0.947556       0.060000                    
       6.800179       8.565438      -0.096281       0.060000                    
       6.327210       8.156442       1.576270       0.060000                    
       8.238205       6.709929       1.821400       0.060000                    
       8.796468       8.297949       1.225747       0.060000                    
       9.027340       7.438567      -1.013200       0.060000                    
       9.893639       6.351841       0.107898       0.060000                    
       8.096267       4.749360       0.030637       0.060000                    
       8.569236       5.158356      -1.641914       0.060000                    
      -0.928841      -7.615227       2.455574      -0.120000                    
      -1.230989      -8.304144       3.787864      -0.120000                    
      -0.010602      -8.327959       4.710446      -0.120000                    
       1.217423      -8.926336       4.021356      -0.120000                    
       1.519565      -8.237423       2.689074      -0.120000                    
       0.299187      -8.213612       1.766495      -0.120000                    
      -0.742012      -6.560165       2.644223       0.060000                    
      -1.788404      -7.734808       1.799500       0.060000                    
      -2.032517      -7.762404       4.285516       0.060000                    
      -1.535748      -9.329243       3.587978       0.060000                    
       0.220426      -7.307248       5.007782       0.060000                    
      -0.247265      -8.931152       5.584442       0.060000                    
       1.030597      -9.981405       3.832719       0.060000                    
       2.076986      -8.806754       4.677430       0.060000                    
       1.824330      -7.212320       2.888952       0.060000                    
       2.321099      -8.779160       2.191414       0.060000                    
       0.068156      -9.234316       1.469148       0.060000                    
       0.535848      -7.610411       0.892489       0.060000                    
      -0.972280      11.848000      -3.615032      -0.120000                    
      -1.661485      10.769117      -4.452837      -0.120000                    
      -1.516154       9.379424      -3.829405      -0.120000                    
      -0.054970       9.032033      -3.537405      -0.120000                    
       0.634241      10.110921      -2.699607      -0.120000                    
       0.488913      11.500607      -3.323028      -0.120000                    
      -1.502046      11.945445      -2.669743       0.060000                    
      -1.003423      12.787024      -4.163607       0.060000                    
      -2.720212      11.008680      -4.525311       0.060000                    
      -1.209101      10.755374      -5.442194       0.060000                    
      -2.072162       9.357893      -2.894506       0.060000                    
      -1.916432       8.643459      -4.523505       0.060000                    
       0.474795       8.934589      -4.482695       0.060000                    
      -0.023820       8.093009      -2.988826       0.060000                    
       0.181850      10.124660      -1.710243       0.060000                    
       1.692970       9.871350      -2.627122       0.060000                    
       1.044911      11.522142      -4.257931       0.060000                    
       0.889187      12.236579      -2.628939       0.060000                    
       9.605477      -2.541916       3.966172      -0.120000                    
       8.807861      -2.862822       2.700587      -0.120000                    
       8.925735      -1.754476       1.652399      -0.120000                    
       8.563966      -0.382683       2.225398      -0.120000                    
       9.361581      -0.061777       3.490983      -0.120000                    
       9.243708      -1.170123       4.539171      -0.120000                    
      10.665215      -2.547353       3.719995       0.060000                    
       9.388252      -3.300026       4.715634       0.060000                    
       9.190510      -3.787359       2.273497       0.060000                    
       7.759864      -2.976838       2.969640       0.060000                    
       9.952705      -1.722021       1.294724       0.060000                    
       8.247298      -1.978403       0.831852       0.060000                    
       7.504229      -0.377246       2.471575       0.060000                    
       8.781191       0.375427       1.475936       0.060000                    
      10.409579       0.052231       3.221925       0.060000                    
       8.978933       0.862761       3.918072       0.060000                    
       8.216733      -1.202591       4.896847       0.060000                    
       9.922144      -0.946196       5.359718       0.060000                    
      -7.566109      -3.823027      -1.761304      -0.120000                    
      -7.008058      -5.096318      -2.400183      -0.120000                    
      -8.103876      -6.129029      -2.671695      -0.120000                    
      -8.930192      -6.430717      -1.419806      -0.120000                    
      -9.488248      -5.157421      -0.780915      -0.120000                    
      -8.392430      -4.124711      -0.509402      -0.120000                    
      -8.203645      -3.321018      -2.486007       0.060000                    
      -6.733780      -3.180586      -1.481962       0.060000                    
      -6.536375      -4.833492      -3.344642       0.060000                    
      -6.277973      -5.534087      -1.722707       0.060000                    
      -8.767267      -5.738160      -3.440279       0.060000                    
      -7.636308      -7.051242      -3.010188       0.060000                    
      -8.292661      -6.932722      -0.695090       0.060000                    
      -9.762527      -7.073153      -1.699135       0.060000                    
     -10.218341      -4.719657      -1.458400       0.060000                    
      -9.959931      -5.420255       0.163540       0.060000                    
      -7.729039      -4.515579       0.259182       0.060000                    
      -8.860006      -3.202494      -0.170913       0.060000                    
       5.542316      12.024053      -1.062889      -0.120000                    
       4.723757      10.763279      -0.777695      -0.120000                    
       4.852515       9.730514      -1.899216      -0.120000                    
       4.525784      10.328216      -3.269255      -0.120000                    
       5.344351      11.588985      -3.554443      -0.120000                    
       5.215593      12.621751      -2.432923      -0.120000                    
       6.598807      11.765347      -1.039449       0.060000                    
       5.318070      12.764585      -0.298094       0.060000                    
       5.082283      10.317940       0.147893       0.060000                    
       3.676755      11.042920      -0.681107       0.060000                    
       5.875743       9.361281      -1.916032       0.060000                    
       4.160199       8.914762      -1.701751       0.060000                    
       3.469306      10.586913      -3.292703       0.060000                    
       4.750038       9.587680      -4.034045       0.060000                    
       6.391354      11.309345      -3.651032       0.060000                    
       4.985817      12.034328      -4.480038       0.060000                    
       4.192365      12.990984      -2.416108       0.060000                    
       5.907909      13.437503      -2.630388       0.060000                    
      -5.239771      -1.122991       6.181022      -0.120000                    
      -3.764996      -0.753869       6.008584      -0.120000                    
      -3.131927      -0.293550       7.323264      -0.120000                    