%nprocshared=4                                                                       
%mem=8GB                                                                             
#P pop=chelpg cam-b3lyp/gen scf=qc int=ultrafine charge td(nstates=10)               
                                                                                     
pNA CAM-B3LYP def2-TZVPD Single point - solvent def2-SV(P)                           
                                                                                     
0 1                                                                                  
 C       1.386341       0.000000       0.000000                                 
 C       0.000000       0.000000       0.000000                                 
 C      -0.712907       1.188984      -0.000000                                 
 C      -0.035635       2.384357       0.000131                                 
 C       1.365534       2.410943       0.000833                                 
 C       2.063239       1.195576       0.000133                                 
 H       1.918972      -0.938700       0.000854                                 
 H      -1.791888       1.163049       0.000837                                 
 H      -0.586620       3.315732      -0.002113                                 
 H       3.145392       1.202000      -0.002090                                 
 N      -0.713906      -1.260429       0.001744                                 
 O      -1.931758      -1.232720       0.002551                                 
 O      -0.063858      -2.290656       0.002518                                 
 N       2.037885       3.598040      -0.033161                                 
 H       1.540331       4.445798       0.174764                                 
 H       3.020819       3.607257       0.174736                                 
 C       5.811773       4.873985       4.174742                                 
 C       5.530138       4.487759       2.721317                                 
 C       4.291683       5.196825       2.169580                                 
 C       3.067574       4.992216       3.064406                                 
 C       3.349210       5.378442       4.517832                                 
 C       4.587656       4.669376       5.069574                                 
 H       6.094314       5.924134       4.206971                                 
 H       6.623281       4.253239       4.548488                                 
 H       6.389338       4.766257       2.114844                                 
 H       5.366220       3.413322       2.672572                                 
 H       4.501011       6.262504       2.105104                                 
 H       4.071897       4.795121       1.182644                                 
 H       2.785035       3.942067       3.032178                                 
 H       2.256065       5.612972       2.690659                                 
 H       3.513120       6.452878       4.566582                                 
 H       2.490008       5.099953       5.124303                                 
 H       4.378337       3.603697       5.134045                                 
 H       4.807452       5.071080       6.056505                                 
 C      -4.500134       1.039492       1.453303                                 
 C      -5.996927       1.124517       1.147899                                 
 C      -6.280614       1.965036      -0.098739                                 
 C      -5.632933       3.348794      -0.016803                                 
 C      -4.136141       3.263778       0.288600                                 
 C      -3.852452       2.423249       1.535239                                 
 H      -4.014877       0.474952       0.659886                                 
 H      -4.368281       0.536787       2.409065                                 
 H      -6.375702       0.118200       0.982287                                 
 H      -6.499697       1.581934       1.997399                                 
 H      -5.881243       1.445074      -0.966913                                 
 H      -7.357005       2.090227      -0.196022                                 
 H      -6.118180       3.913334       0.776609                                 
 H      -5.764786       3.851498      -0.972565                                 
 H      -3.633370       2.806352      -0.560899                                 
 H      -3.757365       4.270085       0.454213                                 
 H      -4.251823       2.943212       2.403414                                 
 H      -2.776062       2.298059       1.632522                                 
 C      -2.121071      -0.061760      -3.410786                                 
 C      -3.431580       0.104999      -2.639024                                 
 C      -4.536136       0.708524      -3.508918                                 
 C      -4.093188       2.012922      -4.174718                                 
 C      -2.782674       1.846166      -4.946472                                 
 C      -1.678123       1.242638      -4.076587                                 
 H      -2.265593      -0.814559      -4.182846                                 
 H      -1.346120      -0.377972      -2.715810                                 
 H      -3.757695      -0.873203      -2.292153                                 
 H      -3.255198       0.765887      -1.792983                                 
 H      -4.797072      -0.007160      -4.285651                                 
 H      -5.399899       0.914911      -2.880411                                 
 H      -3.948659       2.765714      -3.402648                                 
 H      -4.868134       2.329137      -4.869686                                 
 H      -2.959056       1.185277      -5.792513                                 
 H      -2.456558       2.824367      -5.293344                                 
 H      -1.417182       1.958325      -3.299845                                 
 H      -0.814359       1.036242      -4.705092                                 
 C      -0.654355       5.162638       4.388733                                 
 C      -1.374000       4.656994       3.136803                                 
 C      -1.177272       5.595259       1.944343                                 
 C      -1.558700       7.038200       2.281178                                 
 C      -0.839060       7.543850       3.533098                                 
 C      -1.035787       6.605576       4.725559                                 
 H       0.418699       5.118275       4.214739                                 
 H      -0.927257       4.526038       5.227648                                 
 H      -0.975779       3.678134       2.878343                                 
 H      -2.438147       4.586677       3.351967                                 
 H      -0.129452       5.571709       1.652558                                 
 H      -1.804988       5.252033       1.124661                                 
 H      -2.631758       7.082560       2.455163                                 
 H      -1.285793       7.674798       1.442249                                 
 H       0.225086       7.614167       3.317933                                 
 H      -1.237273       8.522712       3.791552                                 
 H      -2.083593       6.629129       5.017348                                 
 H      -0.408062       6.948803       5.545236                                 
 C      -1.084772       7.743917      -2.649654                                 
 C      -0.088707       7.118789      -3.628398                                 
 C      -0.617332       5.814760      -4.229321                                 
 C      -1.059249       4.824041      -3.150364                                 
 C      -2.055315       5.449169      -2.171620                                 
 C      -1.526689       6.753198      -1.570697                                 
 H      -1.962446       8.066884      -3.205575                                 
 H      -0.609833       8.595162      -2.166489                                 
 H       0.094820       7.824413      -4.435857                                 
 H       0.835682       6.906359      -3.095485                                 
 H      -1.472423       6.044744      -4.861389                                 
 H       0.174872       5.357055      -4.818110                                 
 H      -0.181577       4.501082      -2.594445                                 
 H      -1.534191       3.972805      -3.633530                                 
 H      -2.979703       5.661598      -2.704532                                 
 H      -2.238843       4.743556      -1.364163                                 
 H      -0.671589       6.523215      -0.938634                                 
 H      -2.318893       7.210902      -0.981908                                 
 C       3.845872       1.094150      -5.989435                                 
 C       4.177102       0.685112      -4.552827                                 
 C       3.094467       1.128288      -3.566672                                 
 C       2.791825       2.623711      -3.681456                                 
 C       2.460604       3.032751      -5.118069                                 
 C       3.543239       2.589575      -6.104224                                 
 H       2.971108       0.536297      -6.316890                                 
 H       4.699803       0.862676      -6.622515                                 
 H       4.263019      -0.398637      -4.510897                                 
 H       5.118601       1.149599      -4.267325                                 
 H       2.183512       0.572020      -3.777352                                 
 H       3.438587       0.919817      -2.555790                                 
 H       3.666597       3.181565      -3.354006                                 
 H       1.937905       2.855176      -3.048379                                 
 H       1.519106       2.568254      -5.403568                                 
 H       2.374687       4.116498      -5.159999                                 
 H       4.454182       3.145830      -5.893546                                 
 H       3.199105       2.798042      -7.115109                                 
                                                                                
       6.145775      -1.202617      -1.969912      -0.120000                    
       7.564266      -0.974187      -1.444001      -0.120000                    
       8.042616      -2.131116      -0.564413      -0.120000                    
       7.055948      -2.439670       0.563557      -0.120000                    
       5.637468      -2.668109       0.037643      -0.120000                    
       5.159116      -1.511170      -0.841946      -0.120000                    
       6.161568      -2.045090      -2.658152       0.060000                    
       5.816115      -0.301950      -2.483493       0.060000                    
       8.238804      -0.880550      -2.292423       0.060000                    
       7.572957      -0.061121      -0.852465       0.060000                    
       8.149864      -3.018324      -1.184908       0.060000                    
       9.000141      -1.860434      -0.124344       0.060000                    
       7.040155      -1.597197       1.251797       0.060000                    
       7.385619      -3.340346       1.077135       0.060000                    
       5.628777      -3.581175      -0.553893       0.060000                    
       4.962928      -2.761736       0.886063       0.060000                    
       5.051859      -0.623964      -0.221446       0.060000                    
       4.201592      -1.781863      -1.282014       0.060000                    
       2.187588       8.636197      -0.557061      -0.120000                    
       1.516980      10.005731      -0.432337      -0.120000                    
       1.990597      10.764884       0.808765      -0.120000                    
       1.835950       9.932878       2.083459      -0.120000                    
       2.506565       8.563337       1.958745      -0.120000                    
       2.032947       7.804184       0.717643      -0.120000                    
       3.248186       8.784569      -0.748831       0.060000                    
       1.726712       8.097212      -1.382065       0.060000                    
       1.761450      10.594155      -1.314166       0.060000                    
       0.441015       9.860887      -0.361750       0.060000                    
       3.041669      11.015876       0.682772       0.060000                    
       1.396001      11.670358       0.910374       0.060000                    
       0.775357       9.784510       2.275238       0.060000                    
       2.296832      10.471857       2.908473       0.060000                    
       3.582529       8.708181       1.888159       0.060000                    
       2.262094       7.974913       2.840574       0.060000                    
       0.981876       7.553193       0.843636       0.060000                    
       2.627533       6.898720       0.616038       0.060000                    
      -0.295451       0.059109       3.440797      -0.120000                    
      -1.277273       0.228864       4.601871      -0.120000                    
      -1.056253       1.544174       5.351634      -0.120000                    
       0.396818       1.710872       5.800789      -0.120000                    
       1.378649       1.541118       4.639710      -0.120000                    
       1.157619       0.225807       3.889952      -0.120000                    
      -0.514878       0.812254       2.686952       0.060000                    
      -0.418389      -0.938451       3.024508       0.060000                    
      -2.290102       0.221003       4.204746       0.060000                    
      -1.138480      -0.595655       5.297976       0.060000                    
      -1.312405       2.368850       4.689899       0.060000                    
      -1.695580       1.554196       6.231928       0.060000                    
       0.616242       0.957736       6.554633       0.060000                    
       0.519764       2.708433       6.217074       0.060000                    
       1.239847       2.365636       3.943611       0.060000                    
       2.391469       1.548978       5.036840       0.060000                    
       1.413771      -0.598869       4.551686       0.060000                    
       1.796953       0.215796       3.009652       0.060000                    
      -0.893706      -5.078369       3.098164      -0.120000                    
       0.120867      -6.169505       2.750330      -0.120000                    
       1.083387      -6.446841       3.906921      -0.120000                    
       1.763196      -5.170114       4.405755      -0.120000                    
       0.748621      -4.078969       4.753587      -0.120000                    
      -0.213896      -3.801643       3.596997      -0.120000                    
      -1.550551      -5.451216       3.881270       0.060000                    
      -1.468153      -4.840346       2.205440       0.060000                    
      -0.418924      -7.085559       2.519963       0.060000                    
       0.698600      -5.844767       1.887505       0.060000                    
       0.521837      -6.885674       4.728951       0.060000                    
       1.850446      -7.137461       3.562844       0.060000                    
       2.420033      -4.797268       3.622653       0.060000                    
       2.337644      -5.408137       5.298479       0.060000                    
       0.170888      -4.403707       5.616413       0.060000                    
       1.288412      -3.162914       4.983954       0.060000                    
       0.347651      -3.362799       2.774965       0.060000                    
      -0.980957      -3.111012       3.941073       0.060000                    
      -4.513170      -3.457391      -3.474966      -0.120000                    
      -5.497587      -4.191209      -4.387846      -0.120000                    
      -6.934097      -3.702053      -4.192476      -0.120000                    
      -7.363670      -3.756474      -2.725002      -0.120000                    
      -6.379254      -3.022656      -1.812122      -0.120000                    
      -4.942744      -3.511811      -2.007492      -0.120000                    
      -4.462811      -2.415480      -3.784060       0.060000                    
      -3.536091      -3.926486      -3.568799       0.060000                    
      -5.208647      -4.017048      -5.422173       0.060000                    
      -5.458059      -5.254055      -4.158858       0.060000                    
      -7.000401      -2.671985      -4.536193       0.060000                    
      -7.599606      -4.337220      -4.773311       0.060000                    
      -7.414030      -4.798385      -2.415908       0.060000                    
      -8.340750      -3.287378      -2.631169       0.060000                    
      -6.418782      -1.959810      -2.041111       0.060000                    
      -6.668202      -3.196818      -0.777790       0.060000                    
      -4.876438      -4.541890      -1.663773       0.060000                    
      -4.277236      -2.876645      -1.426657       0.060000                    
       7.037188       4.153986      -3.125654      -0.120000                    
       6.312812       5.027911      -2.099735      -0.120000                    
       7.123086       5.191441      -0.812209      -0.120000                    
       7.541331       3.842851      -0.222839      -0.120000                    
       8.265710       2.968960      -1.248746      -0.120000                    
       7.455436       2.805390      -2.536260      -0.120000                    
       7.929405       4.678541      -3.461041       0.060000                    
       6.367527       3.974357      -3.964016       0.060000                    
       6.149005       6.011515      -2.534714       0.060000                    
       5.361409       4.560435      -1.854753       0.060000                    
       8.019402       5.766017      -1.036097       0.060000                    
       6.511605       5.715824      -0.080888       0.060000                    
       6.649119       3.318302       0.112579       0.060000                    
       8.210993       4.022484       0.615545       0.060000                    
       9.217113       3.436405      -1.493719       0.060000                    
       8.429515       1.985326      -0.813757       0.060000                    
       6.559135       2.230817      -2.312369       0.060000                    
       8.066917       2.281007      -3.267582       0.060000                    
       1.214691      -5.585290      -3.818540      -0.120000                    
       1.075854      -4.068910      -3.967756      -0.120000                    
       0.914261      -3.649389      -5.430266      -0.120000                    
       2.028434      -4.212701      -6.314741      -0.120000                    
       2.167285      -5.729078      -6.165522      -0.120000                    
       2.328874      -6.148602      -4.703021      -0.120000                    
       0.274079      -6.050493      -4.105773       0.060000                    
       1.446583      -5.812730      -2.780200       0.060000                    
       0.197742      -3.744014      -3.413807       0.060000                    
       1.970596      -3.596817      -3.567492       0.060000                    
      -0.040848      -4.021248      -5.795138       0.060000                    
       0.942251      -2.563181      -5.485454       0.060000                    
       2.969056      -3.747498      -6.027513       0.060000                    
       1.796556      -3.985258      -7.353077       0.060000                    
       1.272539      -6.201174      -6.565794       0.060000                    
       3.045384      -6.053977      -6.719473       0.060000                    
       3.283988      -5.776741      -4.338139       0.060000                    
       2.300888      -7.234807      -4.647824       0.060000                    
      -6.739168      -5.810588       3.723941      -0.120000                    
      -6.002939      -4.771741       4.572213      -0.120000                    
      -5.878236      -3.427752       3.851691      -0.120000                    
      -5.256135      -3.577900       2.461926      -0.120000                    
      -5.992364      -4.616746       1.613654      -0.120000                    
      -6.117067      -5.960736       2.334176      -0.120000                    
      -7.774209      -5.495581       3.609344       0.060000                    
      -6.691238      -6.771460       4.231939       0.060000                    
      -6.557534      -4.620829       5.495958       0.060000                    
      -5.003875      -5.144274       4.788468       0.060000                    
      -6.871759      -2.997892       3.743309       0.060000                    
      -5.246114      -2.771770       4.446506       0.060000                    
      -4.221095      -3.892908       2.576523       0.060000                    
      -5.304070      -2.617027       1.953942       0.060000                    
      -6.991439      -4.244206       1.397402       0.060000                    
      -5.437768      -4.767659       0.689908       0.060000                    
      -5.123553      -6.390597       2.442563       0.060000                    
      -6.749198      -6.616720       1.739367       0.060000                    
       6.038745      -0.266687       4.441889      -0.120000                    
       7.046966      -0.778583       5.472567      -0.120000                    
       7.389569      -2.253877       5.255399      -0.120000                    
       6.136995      -3.130398       5.194582      -0.120000                    
       5.128764      -2.618493       4.163907      -0.120000                    
       4.786167      -1.143210       4.381063      -0.120000                    
       6.511916      -0.268062       3.462202       0.060000                    
       5.743104       0.743608       4.716716       0.060000                    
       7.959960      -0.193296       5.386318       0.060000                    
       6.617615      -0.663939       6.465628       0.060000                    
       7.927891      -2.351008       4.314961       0.060000                    
       8.010619      -2.591904       6.082309       0.060000                    
       5.663820      -3.129025       6.174260       0.060000                    
       6.432637      -4.140693       4.919754       0.060000                    
       5.558119      -2.733139       3.170832       0.060000                    
       4.215780      -3.203789       4.250153       0.060000                    
       4.247845      -1.046079       5.321500       0.060000                    
       4.165115      -0.805173       3.554152       0.060000                    
      -1.985505      -9.359377       0.598525      -0.120000                    
      -2.717247      -8.023435       0.454581      -0.120000                    
      -2.641711      -7.479580      -0.973527      -0.120000                    
      -1.200675      -7.401363      -1.481727      -0.120000                    
      -0.468926      -8.737296      -1.337790      -0.120000                    
      -0.544472      -9.281152       0.090324      -0.120000                    
      -2.517809     -10.111449       0.020038       0.060000                    
      -1.968555      -9.634911       1.650827       0.060000                    
      -3.763107      -8.169923       0.715950       0.060000                    
      -2.257988      -7.301288       1.126350       0.060000                    
      -3.205680      -8.141074      -1.627736       0.060000                    
      -3.070124      -6.479608      -0.987812       0.060000                    
      -0.668371      -6.649292      -0.903240       0.060000                    
      -1.217623      -7.125823      -2.534044       0.060000                    
      -0.928194      -9.459444      -2.009553       0.060000                    
       0.576927      -8.590818      -1.599152       0.060000                    
       0.019509      -8.619666       0.744529       0.060000                    
      -0.116047     -10.281132       0.104605       0.060000                    
       5.800302      -8.083998      -0.190841      -0.120000                    
       6.408280      -6.863895       0.503831      -0.120000                    
       5.446006      -6.243619       1.518860      -0.120000                    
       4.082740      -5.930073       0.899008      -0.120000                    
       3.474762      -7.150176       0.204336      -0.120000                    
       4.437042      -7.770441      -0.810700      -0.120000                    
       5.673965      -8.875773       0.544576       0.060000                    
       6.475350      -8.406732      -0.980601       0.060000                    
       7.310986      -7.174708       1.025491       0.060000                    
       6.646626      -6.117091      -0.250605       0.060000                    
       5.302658      -6.946681       2.336674       0.060000                    
       5.880796      -5.317589       1.889206       0.060000                    
       4.209076      -5.138297       0.163591       0.060000                    
       3.407698      -5.607328       1.688761       0.060000                    
       3.236416      -7.896979       0.958772       0.060000                    
       2.572053      -6.839353      -0.317326       0.060000                    
       4.580392      -7.067389      -1.628512       0.060000                    
       4.002254      -8.696481      -1.181044       0.060000                    
       7.719578       9.220598       0.678353      -0.120000                    
       8.161839      10.507566       1.377635      -0.120000                    
       8.323644      10.313352       2.886635      -0.120000                    
       7.068239       9.716235       3.525690      -0.120000                    
       6.625988       8.429258       2.826404      -0.120000                    
       6.464184       8.623473       1.317405      -0.120000                    
       8.525060       8.492571       0.748062       0.060000                    
       7.504964       9.447259      -0.363869       0.060000                    
       9.118391      10.817767       0.962487       0.060000                    
       7.409045      11.273711       1.204452       0.060000                    
       9.158249       9.638054       3.062771       0.060000                    
       8.518949      11.281581       3.342754       0.060000                    
       6.262767      10.444263       3.455976       0.060000                    
       7.282864       9.489565       4.567908       0.060000                    
       7.378782       7.663114       2.999587       0.060000                    
       5.669431       8.119069       3.241564       0.060000                    
       5.629569       9.298769       1.141273       0.060000                    
       6.268868       7.655254       0.861289       0.060000                    
       3.765429       6.584002      -6.486331      -0.120000                    
       3.351276       7.468661      -7.663918      -0.120000                    
       3.597721       8.951969      -7.380887      -0.120000                    
       2.948256       9.401177      -6.070394      -0.120000                    
       3.362408       8.516519      -4.892807      -0.120000                    
       3.115966       7.033223      -5.175831      -0.120000                    
       4.846367       6.637215      -6.374777       0.060000                    
       3.457446       5.561549      -6.694404       0.060000                    
       3.932670       7.180056      -8.536994       0.060000                    
       2.289768       7.322376      -7.852254       0.060000                    
       4.670554       9.119303      -7.312479       0.060000                    
       3.175935       9.536178      -8.196054       0.060000                    
       1.867317       9.347965      -6.181948       0.060000                    
       3.256239      10.423633      -5.862321       0.060000                    
       4.423919       8.662817      -4.704464       0.060000                    
       2.781014       8.805125      -4.019731       0.060000                    
       2.043131       6.865878      -5.244245       0.060000                    
       3.537747       6.449013      -4.360672       0.060000                    
      -6.947084       5.949535       2.682172      -0.120000                    
      -5.506080       6.409098       2.912821      -0.120000                    
      -5.058183       6.186861       4.358874      -0.120000                    