%nprocshared=4                                                                       
%mem=8GB                                                                             
#P pop=chelpg cam-b3lyp/gen scf=qc int=ultrafine charge td(nstates=10)               
                                                                                     
pNA CAM-B3LYP def2-TZVPD Single point - solvent def2-SV(P)                           
                                                                                     
0 1                                                                                  
 C       1.386341       0.000000       0.000000                                 
 C       0.000000       0.000000       0.000000                                 
 C      -0.712907       1.188984      -0.000000                                 
 C      -0.035635       2.384357       0.000131                                 
 C       1.365534       2.410943       0.000833                                 
 C       2.063239       1.195576       0.000133                                 
 H       1.918972      -0.938700       0.000854                                 
 H      -1.791888       1.163049       0.000837                                 
 H      -0.586620       3.315732      -0.002113                                 
 H       3.145392       1.202000      -0.002090                                 
 N      -0.713906      -1.260429       0.001744                                 
 O      -1.931758      -1.232720       0.002551                                 
 O      -0.063858      -2.290656       0.002518                                 
 N       2.037885       3.598040      -0.033161                                 
 H       1.540331       4.445798       0.174764                                 
 H       3.020819       3.607257       0.174736                                 
 C       6.456097       2.993947      -1.285600                                 
 C       5.418456       3.810301      -0.512422                                 
 C       6.063700       4.934047       0.301128                                 
 C       7.178898       4.415389       1.211292                                 
 C       8.216539       3.599035       0.438114                                 
 C       7.571295       2.475289      -0.375436                                 
 H       6.898549       3.628914      -2.050282                                 
 H       5.957429       2.142695      -1.744080                                 
 H       4.722814       4.251028      -1.223327                                 
 H       4.891235       3.146176       0.169252                                 
 H       6.487190       5.662522      -0.387096                                 
 H       5.298638       5.399199       0.919191                                 
 H       6.736447       3.780422       1.975974                                 
 H       7.677566       5.266642       1.669772                                 
 H       8.743760       4.263160      -0.243560                                 
 H       8.912182       3.158309       1.149019                                 
 H       7.147805       1.746814       0.312788                                 
 H       8.336357       2.010137      -0.993499                                 
 C       3.449876      -0.179871       4.337679                                 
 C       2.481034      -0.839311       3.354120                                 
 C       3.164737      -1.919364       2.513288                                 
 C       4.420362      -1.393127       1.815063                                 
 C       5.389205      -0.733677       2.798626                                 
 C       4.705502       0.346363       3.639463                                 
 H       3.748038      -0.917695       5.079574                                 
 H       2.943455       0.654729       4.817843                                 
 H       1.671742      -1.298154       3.918124                                 
 H       2.089457      -0.074816       2.686367                                 
 H       3.449079      -2.741026       3.167250                                 
 H       2.464701      -2.265097       1.755593                                 
 H       4.122200      -0.655306       1.073178                                 
 H       4.926783      -2.227731       1.334908                                 
 H       5.780782      -1.498182       3.466375                                 
 H       6.198498      -0.274835       2.234622                                 
 H       4.421160       1.168024       2.985501                                 
 H       5.405538       0.692105       4.397162                                 
 C      -0.471051      -1.482187      -4.033606                                 
 C      -0.374483       0.023952      -3.782245                                 
 C      -1.672559       0.593250      -3.206162                                 
 C      -2.887224       0.232104      -4.063561                                 
 C      -2.983791      -1.274021      -4.314927                                 
 C      -1.685715      -1.843319      -4.891010                                 
 H      -0.558700      -1.989679      -3.075274                                 
 H       0.428925      -1.806661      -4.551548                                 
 H       0.430249       0.207273      -3.073457                                 
 H      -0.165805       0.521486      -4.727033                                 
 H      -1.818035       0.185780      -2.207955                                 
 H      -1.587665       1.677056      -3.162609                                 
 H      -2.799585       0.739601      -5.021902                                 
 H      -3.787199       0.556591      -3.545625                                 
 H      -3.192470      -1.771564      -3.370143                                 
 H      -3.788523      -1.457342      -5.023715                                 
 H      -1.540240      -1.435859      -5.889222                                 
 H      -1.770619      -2.927134      -4.934567                                 
 C      -1.251416       8.031816       2.493085                                 
 C      -0.284652       7.223338       1.625539                                 
 C      -0.835737       6.990965       0.217244                                 
 C      -2.235277       6.373272       0.243983                                 
 C      -3.202042       7.181740       1.111524                                 
 C      -2.650957       7.414114       2.519819                                 
 H      -1.323521       9.038743       2.087522                                 
 H      -0.864911       8.061200       3.509609                                 
 H       0.652237       7.770650       1.546319                                 
 H      -0.118573       6.257312       2.097658                                 
 H      -0.887758       7.947760      -0.297972                                 
 H      -0.167030       6.314125      -0.310427                                 
 H      -2.163173       5.366335       0.649542                                 
 H      -2.621783       6.343883      -0.772554                                 
 H      -3.368120       8.147776       0.639410                                 
 H      -4.138930       6.634429       1.190745                                 
 H      -2.598926       6.457317       3.035035                                 
 H      -3.319663       8.090954       3.047491                                 
 C      -2.095798      -6.552041      -0.317538                                 
 C      -2.116104      -5.025109      -0.412186                                 
 C      -1.715145      -4.531833      -1.803935                                 
 C      -0.375096      -5.116247      -2.255270                                 
 C      -0.354790      -6.643178      -2.160622                                 
 C      -0.755760      -7.136457      -0.768864                                 
 H      -2.881519      -6.950480      -0.955926                                 
 H      -2.269052      -6.838560       0.717615                                 
 H      -3.124008      -4.676759      -0.196897                                 
 H      -1.414237      -4.622303       0.314955                                 
 H      -2.482522      -4.832864      -2.513936                                 
 H      -1.630186      -3.447485      -1.777307                                 
 H       0.410624      -4.717807      -1.616882                                 
 H      -0.201853      -4.829726      -3.290423                                 
 H      -1.056659      -7.045988      -2.887754                                 
 H       0.653104      -6.991528      -2.375912                                 
 H       0.011627      -6.835423      -0.058872                                 
 H      -0.840709      -8.220802      -0.795501                                 
 C      -7.034577      -3.320013      -0.550457                                 
 C      -5.592725      -2.915508      -0.863943                                 
 C      -5.366241      -1.413417      -0.681057                                 
 C      -6.379337      -0.580736      -1.469250                                 
 C      -7.821188      -0.985240      -1.155764                                 
 C      -8.047672      -2.487332      -1.338650                                 
 H      -7.214166      -3.171397       0.512246                                 
 H      -7.166613      -4.367572      -0.812576                                 
 H      -4.927014      -3.451900      -0.191149                                 
 H      -5.375226      -3.176573      -1.897486                                 
 H      -5.465374      -1.172948       0.375334                                 
 H      -4.366178      -1.167383      -1.031819                                 
 H      -6.199748      -0.729352      -2.531953                                 
 H      -6.247291       0.466826      -1.207140                                 
 H      -8.038688      -0.724176      -0.122221                                 
 H      -8.486899      -0.448850      -1.828558                                 
 H      -7.948540      -2.727801      -2.395041                                 
 H      -9.047735      -2.733366      -0.987888                                 
                                                                                
       4.122526       4.713889       3.622540      -0.120000                    
       4.637830       4.961366       5.041746      -0.120000                    
       3.669904       5.816685       5.861895      -0.120000                    
       3.310455       7.120866       5.147125      -0.120000                    
       2.795161       6.873391       3.727910      -0.120000                    
       3.763077       6.018083       2.907765      -0.120000                    
       3.231772       4.091817       3.679610       0.060000                    
       4.899924       4.208453       3.053546       0.060000                    
       4.760944       4.001720       5.539238       0.060000                    
       5.592512       5.479453       4.979599       0.060000                    
       2.757392       5.247724       6.026912       0.060000                    
       4.140311       6.059428       6.812416       0.060000                    
       4.201219       7.742946       5.090058       0.060000                    
       2.533056       7.626305       5.716109       0.060000                    
       1.840480       6.355313       3.790060       0.060000                    
       2.672047       7.833034       3.230426       0.060000                    
       4.675599       6.587043       2.742747       0.060000                    
       3.292681       5.775339       1.957244       0.060000                    
      -7.704539       3.537075      -0.044211      -0.120000                    
      -7.109416       2.755481       1.128769      -0.120000                    
      -5.617841       3.043346       1.311331      -0.120000                    
      -4.829391       2.825157       0.018375      -0.120000                    
      -5.424514       3.606741      -1.154609      -0.120000                    
      -6.916089       3.318886      -1.337167      -0.120000                    
      -7.686266       4.597243       0.199419       0.060000                    
      -8.728116       3.203435      -0.200716       0.060000                    
      -7.632686       3.041866       2.038600       0.060000                    
      -7.237519       1.691952       0.938618       0.060000                    
      -5.499027       4.079687       1.620321       0.060000                    
      -5.225657       2.374665       2.074721       0.060000                    
      -4.847665       1.764980      -0.225259       0.060000                    
      -3.805815       3.158797       0.174880       0.060000                    
      -5.296412       4.670270      -0.964458       0.060000                    
      -4.901245       3.320365      -2.064436       0.060000                    
      -7.034904       2.282545      -1.646158       0.060000                    
      -7.308275       3.987557      -2.100561       0.060000                    
      -0.863236       0.785370       3.914424      -0.120000                    
      -2.132035       0.160262       4.497736      -0.120000                    
      -3.389225       0.934013       4.095518      -0.120000                    
      -3.277736       2.422813       4.430316      -0.120000                    
      -2.008937       3.047918       3.847015      -0.120000                    
      -0.751747       2.274170       4.249223      -0.120000                    
      -0.886006       0.673080       2.832509       0.060000                    
       0.000568       0.270124       4.329186       0.060000                    
      -2.218529      -0.859511       4.128760       0.060000                    
      -2.054076       0.163558       5.582889       0.060000                    
      -3.533762       0.828850       3.022352       0.060000                    
      -4.239468       0.519522       4.633180       0.060000                    
      -3.254966       2.535104       5.512232       0.060000                    
      -4.141540       2.938056       4.015564       0.060000                    
      -2.086896       3.044622       2.761861       0.060000                    
      -1.922443       4.067695       4.215980       0.060000                    
      -0.607211       2.379330       5.322398       0.060000                    
       0.098495       2.688658       3.711571       0.060000                    
       3.726294      -0.764226      -3.564032      -0.120000                    
       5.155254      -0.764704      -4.110804      -0.120000                    
       5.421288      -1.967677      -5.018083      -0.120000                    
       5.068734      -3.290346      -4.334568      -0.120000                    
       3.639774      -3.289854      -3.787802      -0.120000                    
       3.373739      -2.086895      -2.880516      -0.120000                    
       3.037562      -0.605984      -4.391229       0.060000                    
       3.632765       0.038968      -2.836238       0.060000                    
       5.307456       0.145583      -4.686811       0.060000                    
       5.848168      -0.801316      -3.272826       0.060000                    
       4.814278      -1.867384      -5.915368       0.060000                    
       6.477976      -1.980915      -5.276925       0.060000                    
       5.757465      -3.448588      -3.507371       0.060000                    
       5.162263      -4.093527      -5.062367       0.060000                    
       2.946860      -3.253247      -4.625770       0.060000                    
       3.487571      -4.200155      -3.211788       0.060000                    
       3.980750      -2.187184      -1.983241       0.060000                    
       2.317052      -2.073648      -2.621671       0.060000                    
       2.343777       2.865767      -3.936493      -0.120000                    
       3.792481       2.944625      -4.422243      -0.120000                    
       4.258501       4.390759      -4.602707      -0.120000                    
       3.309785       5.191461      -5.497039      -0.120000                    
       1.861091       5.112602      -5.011291      -0.120000                    
       1.395061       3.666459      -4.830830      -0.120000                    
       2.293045       3.268707      -2.927166       0.060000                    
       2.031112       1.823765      -3.942969       0.060000                    
       4.432604       2.462329      -3.686602       0.060000                    
       3.866450       2.433486      -5.379808       0.060000                    
       4.300091       4.867148      -3.625503       0.060000                    
       5.245130       4.383384      -5.061211       0.060000                    
       3.360517       4.788511      -6.506371       0.060000                    
       3.622450       6.233454      -5.490568       0.060000                    
       1.787123       5.623741      -4.053725       0.060000                    
       1.220958       5.594899      -5.746931       0.060000                    
       1.353470       3.190071      -5.808034       0.060000                    
       0.408442       3.673834      -4.372326       0.060000                    
       2.649153       8.607642      -2.970999      -0.120000                    
       2.897150       7.320489      -2.181906      -0.120000                    
       3.293722       7.604710      -0.731750      -0.120000                    
       4.476992       8.570352      -0.639697      -0.120000                    
       4.228996       9.857505      -1.428790      -0.120000                    
       3.832423       9.573284      -2.878946      -0.120000                    
       1.767014       9.099158      -2.566174       0.060000                    
       2.491316       8.349856      -4.016035       0.060000                    
       1.983177       6.730356      -2.183103       0.060000                    
       3.703208       6.768793      -2.660997       0.060000                    
       2.442632       8.047827      -0.219003       0.060000                    
       3.573150       6.666269      -0.257458       0.060000                    
       5.359142       8.078835      -1.044522       0.060000                    
       4.634829       8.828135       0.405348       0.060000                    
       3.422937      10.409202      -0.949698       0.060000                    
       5.142968      10.447626      -1.427587       0.060000                    
       4.683522       9.130154      -3.391688       0.060000                    
       3.552995      10.511723      -3.353228       0.060000                    
       4.571478      -5.595528       1.301987      -0.120000                    
       4.063453      -5.118957      -0.060226      -0.120000                    
       3.253042      -6.199133      -0.779596      -0.120000                    
       4.021386      -7.518148      -0.883931      -0.120000                    
       4.529412      -7.994710       0.478286      -0.120000                    
       5.339822      -6.914543       1.197653      -0.120000                    
       3.717376      -5.741816       1.959848       0.060000                    
       5.236422      -4.837198       1.709823       0.060000                    
       3.427040      -4.249622       0.090724       0.060000                    
       4.919555      -4.857121      -0.678450       0.060000                    
       2.335420      -6.374471      -0.222072       0.060000                    
       3.023350      -5.850204      -1.784182       0.060000                    
       4.875487      -7.371857      -1.541800       0.060000                    
       3.356431      -8.276478      -1.291766       0.060000                    
       3.673309      -8.256555       1.096507       0.060000                    
       5.165824      -8.864055       0.327332       0.060000                    
       6.257445      -6.739196       0.640132       0.060000                    
       5.569515      -7.263463       2.202243       0.060000                    
      -0.210460      -6.183670       5.920214      -0.120000                    
      -1.084867      -6.961123       4.934365      -0.120000                    
      -0.309206      -7.372377       3.681274      -0.120000                    
       0.381550      -6.179448       3.017358      -0.120000                    
       1.255958      -5.401994       4.003206      -0.120000                    
       0.480296      -4.990740       5.256297      -0.120000                    
       0.552365      -6.853514       6.311479       0.060000                    
      -0.839743      -5.815731       6.727822       0.060000                    
      -1.450448      -7.859393       5.427374       0.060000                    
      -1.918325      -6.328925       4.635458       0.060000                    
       0.448817      -8.099505       3.964638       0.060000                    
      -1.005585      -7.811059       2.969702       0.060000                    
      -0.381273      -5.509594       2.626097       0.060000                    
       1.010833      -6.547388       2.209750       0.060000                    
       2.089417      -6.034179       4.302108       0.060000                    
       1.621539      -4.503716       3.510202       0.060000                    
      -0.277726      -4.263602       4.972937       0.060000                    
       1.176677      -4.552045       5.967863       0.060000                    
      -1.369291       8.731687      -4.879158      -0.120000                    
      -1.185530       7.462015      -4.045531      -0.120000                    
      -2.302163       6.446126      -4.294841      -0.120000                    
      -3.689996       7.061304      -4.103856      -0.120000                    
      -3.873756       8.330984      -4.937480      -0.120000                    
      -2.757125       9.346864      -4.688174      -0.120000                    
      -1.242516       8.479214      -5.929806       0.060000                    
      -0.621143       9.459879      -4.573160       0.060000                    
      -0.234526       7.005662      -4.311972       0.060000                    
      -1.191672       7.733806      -2.992072       0.060000                    
      -2.220308       6.083477      -5.317294       0.060000                    
      -2.186885       5.623415      -3.592295       0.060000                    
      -3.816771       7.313785      -3.053205       0.060000                    
      -4.438143       6.333121      -4.409852       0.060000                    
      -3.867614       8.059193      -5.990938       0.060000                    
      -4.824761       8.787329      -4.671043       0.060000                    
      -2.838979       9.709527      -3.665726       0.060000                    
      -2.872402      10.169588      -5.390725       0.060000                    
       9.545702      -3.552691      -2.005412      -0.120000                    
       8.495067      -2.440948      -1.973207      -0.120000                    
       8.262300      -1.913273      -0.556044      -0.120000                    
       7.936529      -3.038380       0.428331      -0.120000                    
       8.987176      -4.150118       0.396140      -0.120000                    
       9.219941      -4.677798      -1.021037      -0.120000                    
      10.510906      -3.126768      -1.739523       0.060000                    
       9.580809      -3.968940      -3.009956       0.060000                    
       8.838928      -1.619351      -2.597976       0.060000                    
       7.556801      -2.838088      -2.354761       0.060000                    
       9.165589      -1.408314      -0.220317       0.060000                    
       7.426530      -1.217068      -0.577211       0.060000                    
       6.971336      -3.464298       0.162455       0.060000                    
       7.901423      -2.622122       1.432879       0.060000                    
       9.925440      -3.752983       0.777680       0.060000                    
       8.643304      -4.971711       1.020899       0.060000                    
       8.316652      -5.182752      -1.356750       0.060000                    
      10.055711      -5.374004      -0.999870       0.060000                    
      -4.602585      -5.274488       7.237810      -0.120000                    
      -3.922774      -4.389892       8.284821      -0.120000                    
      -4.336734      -2.922954       8.151701      -0.120000                    
      -4.126469      -2.394552       6.731271      -0.120000                    
      -4.806279      -3.279148       5.684259      -0.120000                    
      -4.392320      -4.746087       5.817380      -0.120000                    
      -5.670377      -5.300107       7.444681       0.060000                    
      -4.181615      -6.275586       7.302193       0.060000                    
      -4.205534      -4.742515       9.274443       0.060000                    
      -2.845151      -4.460371       8.152783       0.060000                    
      -5.391712      -2.835275       8.402655       0.060000                    
      -3.735363      -2.328500       8.836356       0.060000                    
      -3.058676      -2.368934       6.524399       0.060000                    
      -4.547439      -1.393454       6.666887       0.060000                    
      -5.883903      -3.208668       5.816297       0.060000                    
      -4.523520      -2.926522       4.694629       0.060000                    
      -3.337342      -4.833765       5.566426       0.060000                    
      -4.993691      -5.340540       5.132724       0.060000                    
      -5.754135      -8.784963       2.718002      -0.120000                    
      -6.435923      -8.900120       1.353146      -0.120000                    
      -5.719472      -8.073861       0.283114      -0.120000                    
      -5.536595      -6.616356       0.711246      -0.120000                    
      -4.854807      -6.501199       2.076102      -0.120000                    
      -5.571257      -7.327458       3.146134      -0.120000                    
      -4.774892      -9.255244       2.658279       0.060000                    
      -6.370758      -9.290068       3.458425       0.060000                    
      -6.429437      -9.944418       1.048230       0.060000                    
      -7.458506      -8.539828       1.443769       0.060000                    
      -4.738590      -8.509883       0.106032       0.060000                    
      -6.312669      -8.096527      -0.628653       0.060000                    
      -6.515849      -6.146083       0.770965       0.060000                    
      -4.919971      -6.111251      -0.029176       0.060000                    
      -3.832224      -6.861496       1.985466       0.060000                    
      -4.861292      -5.456902       2.381018       0.060000                    
      -6.552139      -6.891437       3.323216       0.060000                    
      -4.978070      -7.304791       4.057901       0.060000                    
       9.641927       2.871792       6.366851      -0.120000                    
       9.947533       1.374926       6.449430      -0.120000                    
       9.716194       0.668159       5.112286      -0.120000                    
       8.316534       0.937492       4.556064      -0.120000                    
       8.010938       2.434352       4.473494      -0.120000                    
       8.242266       3.141119       5.810639      -0.120000                    
      10.372742       3.340214       5.710981       0.060000                    
       9.706087       3.295468       7.366826       0.060000                    
      10.989886       1.248061       6.733973       0.060000                    
       9.295292       0.927574       7.196504       0.060000                    
      10.450630       1.030319       4.395969       0.060000                    
       9.830887      -0.403473       5.261089       0.060000                    
       7.585720       0.469074       5.211947       0.060000                    
       8.252382       0.513811       3.556099       0.060000                    
       8.663178       2.881704       3.726420       0.060000                    
       6.968584       2.561217       4.188952       0.060000                    
       7.507840       2.778963       6.526947       0.060000                    
       8.127584       4.212760       5.661839       0.060000                    
      -8.590729       0.152257      -7.158766      -0.120000                    
      -8.247969      -1.184744      -6.498613      -0.120000                    
      -7.467036      -0.997330      -5.196293      -0.120000                    