%nprocshared=4                                                                       
%mem=8GB                                                                             
#P pop=chelpg cam-b3lyp/gen scf=qc int=ultrafine charge td(nstates=10)               
                                                                                     
pNA CAM-B3LYP def2-TZVPD Single point - solvent def2-SV(P)                           
                                                                                     
0 1                                                                                  
 C       1.386341       0.000000       0.000000                                 
 C       0.000000       0.000000       0.000000                                 
 C      -0.712907       1.188984      -0.000000                                 
 C      -0.035635       2.384357       0.000131                                 
 C       1.365534       2.410943       0.000833                                 
 C       2.063239       1.195576       0.000133                                 
 H       1.918972      -0.938700       0.000854                                 
 H      -1.791888       1.163049       0.000837                                 
 H      -0.586620       3.315732      -0.002113                                 
 H       3.145392       1.202000      -0.002090                                 
 N      -0.713906      -1.260429       0.001744                                 
 O      -1.931758      -1.232720       0.002551                                 
 O      -0.063858      -2.290656       0.002518                                 
 N       2.037885       3.598040      -0.033161                                 
 H       1.540331       4.445798       0.174764                                 
 H       3.020819       3.607257       0.174736                                 
 C       6.078614       3.886830       2.995062                                 
 C       7.398220       4.630010       2.777793                                 
 C       7.183564       6.005278       2.142555                                 
 C       6.355297       5.920880       0.858875                                 
 C       5.035692       5.177691       1.076143                                 
 C       5.250361       3.802422       1.711385                                 
 H       5.500111       4.418281       3.747766                                 
 H       6.300018       2.876673       3.333028                                 
 H       7.884381       4.764361       3.741742                                 
 H       8.026967       4.036387       2.117537                                 
 H       6.658368       6.638830       2.854178                                 
 H       8.154789       6.432535       1.902119                                 
 H       6.933809       5.389429       0.106166                                 
 H       6.133893       6.931037       0.520909                                 
 H       4.406945       5.771323       1.736401                                 
 H       4.549535       5.043338       0.112203                                 
 H       5.775548       3.168869       0.999768                                 
 H       4.279128       3.375165       1.951827                                 
 C      -2.816044       7.126884      -1.768659                                 
 C      -1.664349       6.887429      -2.746990                                 
 C      -1.759883       5.516754      -3.420176                                 
 C      -1.889512       4.384470      -2.399343                                 
 C      -3.041215       4.623926      -1.421006                                 
 C      -2.945673       5.994602      -0.747827                                 
 H      -3.743644       7.193854      -2.333236                                 
 H      -2.631200       8.056707      -1.234907                                 
 H      -1.696429       7.655711      -3.516583                                 
 H      -0.725935       6.941002      -2.199148                                 
 H      -2.636523       5.506145      -4.064348                                 
 H      -0.858336       5.354131      -4.007120                                 
 H      -0.961912       4.317492      -1.834767                                 
 H      -2.074365       3.454648      -2.933089                                 
 H      -3.979621       4.570353      -1.968853                                 
 H      -3.009132       3.855645      -0.651427                                 
 H      -2.069033       6.005211      -0.103654                                 
 H      -3.847234       6.157225      -0.160886                                 
 C       6.437057       1.056172      -3.878916                                 
 C       5.281938       1.864030      -3.283932                                 
 C       5.426568       2.042134      -1.771195                                 
 C       5.620995       0.705437      -1.052561                                 
 C       6.776112      -0.102402      -1.647531                                 
 C       6.631485      -0.280516      -3.160259                                 
 H       7.352069       1.637336      -3.785670                                 
 H       6.220228       0.859278      -4.926673                                 
 H       5.268740       2.846943      -3.750014                                 
 H       4.350589       1.338674      -3.484661                                 
 H       6.292825       2.670831      -1.576386                                 
 H       4.524018       2.514312      -1.388893                                 
 H       4.705985       0.124282      -1.145785                                 
 H       5.837826       0.902330      -0.004782                                 
 H       7.707465       0.422934      -1.446793                                 
 H       6.789314      -1.085335      -1.181441                                 
 H       5.765229      -0.909223      -3.355068                                 
 H       7.534036      -0.752704      -3.542562                                 
 C       2.442913       8.110835       2.131050                                 
 C       1.737718       7.134754       1.187181                                 
 C       0.522809       7.770526       0.508392                                 
 C      -0.443423       8.386372       1.522359                                 
 C       0.261773       9.362464       2.466228                                 
 C       1.476682       8.726692       3.145017                                 
 H       2.882144       8.910974       1.539029                                 
 H       3.218139       7.572524       2.672152                                 
 H       2.442264       6.823889       0.418687                                 
 H       1.403545       6.274305       1.763052                                 
 H       0.869524       8.554210      -0.161843                                 
 H      -0.004716       7.001187      -0.051588                                 
 H      -0.882662       7.586234       2.114385                                 
 H      -1.218657       8.924684       0.981261                                 
 H       0.595940      10.222913       1.890348                                 
 H      -0.442782       9.673319       3.234726                                 
 H       1.129957       7.942997       3.815257                                 
 H       2.004201       9.496021       3.704988                                 
 C       4.787969      -4.727359      -2.952432                                 
 C       5.011547      -5.958475      -2.071955                                 
 C       3.722325      -6.413620      -1.385129                                 
 C       3.048901      -5.274431      -0.617160                                 
 C       2.825332      -4.043324      -1.497642                                 
 C       4.114554      -3.588170      -2.184468                                 
 H       4.149923      -5.008446      -3.787645                                 
 H       5.752870      -4.379406      -3.315130                                 
 H       5.378235      -6.770504      -2.696238                                 
 H       5.744142      -5.710340      -1.306834                                 
 H       3.032941      -6.776002      -2.144778                                 
 H       3.964210      -7.209974      -0.684340                                 
 H       3.686946      -4.993354       0.218053                                 
 H       2.084008      -5.622383      -0.254467                                 
 H       2.092737      -4.291450      -2.262763                                 
 H       2.458643      -3.231286      -0.873360                                 
 H       4.803942      -3.225788      -1.424810                                 
 H       3.872669      -2.791825      -2.885257                                 
 C      -4.128717      -1.281618      -3.812407                                 
 C      -3.725369      -0.174092      -2.836942                                 
 C      -4.806368       0.901504      -2.712283                                 
 C      -5.218657       1.460631      -4.075499                                 
 C      -5.622005       0.353096      -5.050963                                 
 C      -4.541006      -0.722500      -5.175622                                 
 H      -4.970879      -1.826432      -3.390957                                 
 H      -3.280142      -1.947904      -3.952124                                 
 H      -3.560872      -0.616847      -1.856913                                 
 H      -2.811275       0.291990      -3.198702                                 
 H      -5.681146       0.461915      -2.237783                                 
 H      -4.417512       1.716528      -2.105472                                 
 H      -4.376495       2.005445      -4.496948                                 
 H      -6.067232       2.126907      -3.935781                                 
 H      -6.536094      -0.112987      -4.689195                                 
 H      -5.786502       0.795850      -6.030993                                 
 H      -3.666237      -0.282912      -5.650117                                 
 H      -4.929871      -1.537515      -5.782428                                 
                                                                                
      -0.986019       3.486879       4.425841      -0.120000                    
      -2.026952       3.557903       5.544905      -0.120000                    
      -3.447868       3.341026       5.020528      -0.120000                    
      -3.783117       4.286397       3.865163      -0.120000                    
      -2.742198       4.215372       2.746095      -0.120000                    
      -1.321281       4.432260       3.270473      -0.120000                    
      -0.954955       2.468598       4.043996       0.060000                    
      -0.017137       3.766591       4.833953       0.060000                    
      -1.804428       2.783968       6.276376       0.060000                    
      -1.973463       4.541100       6.007648       0.060000                    
      -3.535434       2.315718       4.667399       0.060000                    
      -4.149363       3.521694       5.832303       0.060000                    
      -3.814185       5.304688       4.246999       0.060000                    
      -4.752007       4.006684       3.457056       0.060000                    
      -2.795678       3.232186       2.283348       0.060000                    
      -2.964721       4.989318       2.014625       0.060000                    
      -1.233701       5.457558       3.623605       0.060000                    
      -0.619777       4.251592       2.458693       0.060000                    
       2.291696      -0.510492       5.579035      -0.120000                    
       2.879400       0.883284       5.809090      -0.120000                    
       3.100072       1.636156       4.495539      -0.120000                    
       3.929085       0.821812       3.500244      -0.120000                    
       3.341394      -0.571964       3.270193      -0.120000                    
       3.120715      -1.324836       4.583749      -0.120000                    
       1.283464      -0.402005       5.184882       0.060000                    
       2.270494      -1.040072       6.529124       0.060000                    
       2.188457       1.454531       6.425426       0.060000                    
       3.837064       0.777755       6.314465       0.060000                    
       2.130790       1.848158       4.049217       0.060000                    
       3.627308       2.563256       4.710557       0.060000                    
       4.937323       0.713325       3.894406       0.060000                    
       3.950296       1.351392       2.550150       0.060000                    
       2.383722      -0.466435       2.764823       0.060000                    
       4.032324      -1.143211       2.653852       0.060000                    
       4.090005      -1.536838       5.030066       0.060000                    
       2.593478      -2.251936       4.368731       0.060000                    
       2.101465       6.102438      -5.644207      -0.120000                    
       1.646092       7.195479      -4.675316      -0.120000                    
       2.525653       7.255654      -3.424813      -0.120000                    
       2.640486       5.892992      -2.738552      -0.120000                    
       3.095859       4.799950      -3.707443      -0.120000                    
       2.216298       4.739775      -4.957947      -0.120000                    
       3.076848       6.374679      -6.041959       0.060000                    
       1.373619       6.026077      -6.449187       0.060000                    
       1.699296       8.155537      -5.184299       0.060000                    
       0.622821       6.986010      -4.370857       0.060000                    
       3.521457       7.583503      -3.715584       0.060000                    
       2.085571       7.961895      -2.723917       0.060000                    
       1.665104       5.620750      -2.340801       0.060000                    
       3.368332       5.969351      -1.933573       0.060000                    
       4.119131       5.009420      -4.011903       0.060000                    
       3.042655       3.839893      -3.198462       0.060000                    
       1.220485       4.411925      -4.667171       0.060000                    
       2.656372       4.033534      -5.658838       0.060000                    
      -7.774829      -0.247007       0.789993      -0.120000                    
      -6.494355       0.053282       1.571703      -0.120000                    
      -5.336810      -0.851689       1.144900      -0.120000                    
      -5.713500      -2.333222       1.209372      -0.120000                    
      -6.993983      -2.633511       0.427666      -0.120000                    
      -8.151528      -1.728530       0.854470      -0.120000                    
      -7.618894       0.027053      -0.251291       0.060000                    
      -8.587559       0.337224       1.216302       0.060000                    
      -6.211378       1.088135       1.391188       0.060000                    
      -6.687893      -0.105842       2.630424       0.060000                    
      -5.063345      -0.606725       0.120777       0.060000                    
      -4.495213      -0.677624       1.812103       0.060000                    
      -5.869437      -2.607283       2.250655       0.060000                    
      -4.900779      -2.917453       0.783067       0.060000                    
      -6.800436      -2.474377      -0.631058       0.060000                    
      -7.276947      -3.668355       0.608186       0.060000                    
      -8.424984      -1.973494       1.878587       0.060000                    
      -8.993117      -1.902605       0.187262       0.060000                    
       1.930478       0.319328      -4.520206      -0.120000                    
       3.147010      -0.334314      -5.178750      -0.120000                    
       2.753870      -1.199050      -6.378199      -0.120000                    
       1.677412      -2.224713      -6.017234      -0.120000                    
       0.460880      -1.571072      -5.358691      -0.120000                    
       0.854021      -0.706336      -4.159242      -0.120000                    
       1.504655       1.040412      -5.214727       0.060000                    
       2.254410       0.818478      -3.609442       0.060000                    
       3.820134       0.449056      -5.520637       0.060000                    
       3.643624      -0.964358      -4.443836       0.060000                    
       2.367781      -0.551114      -7.162258       0.060000                    
       3.636643      -1.730083      -6.728176       0.060000                    
       2.103226      -2.945797      -5.322708       0.060000                    
       1.353486      -2.723874      -6.927990       0.060000                    
      -0.035737      -0.941028      -6.093591       0.060000                    
      -0.212248      -2.354442      -5.016789       0.060000                    
       1.240105      -1.354272      -3.375168       0.060000                    
      -0.028748      -0.175303      -3.809255       0.060000                    
      -2.782836      -2.496106       4.013986      -0.120000                    
      -3.847294      -2.573162       5.110292      -0.120000                    
      -4.215611      -1.189541       5.649697      -0.120000                    
      -2.983114      -0.403724       6.101792      -0.120000                    
      -1.918661      -0.326667       5.005477      -0.120000                    
      -1.550344      -1.710288       4.466073      -0.120000                    
      -3.212557      -1.999855       3.146385       0.060000                    
      -2.475190      -3.507316       3.756378       0.060000                    
      -4.741232      -3.033767       4.695207       0.060000                    
      -3.459204      -3.173894       5.930143       0.060000                    
      -4.714417      -0.630367       4.860953       0.060000                    
      -4.880269      -1.314328       6.502004       0.060000                    
      -2.553398      -0.899974       6.969384       0.060000                    
      -3.290751       0.607487       6.359395       0.060000                    
      -2.306746       0.274064       4.185635       0.060000                    
      -1.024718       0.133937       5.420571       0.060000                    
      -1.051525      -2.269463       5.254820       0.060000                    
      -0.885682      -1.585502       3.613774       0.060000                    
      -3.386037      -8.509490       1.872844      -0.120000                    
      -4.602743      -7.731328       1.367836      -0.120000                    
      -4.199288      -6.531099       0.508911      -0.120000                    
      -3.196259      -5.624681       1.225399      -0.120000                    
      -1.979557      -6.402844       1.730420      -0.120000                    
      -2.383017      -7.603064       2.589337      -0.120000                    
      -2.890738      -8.971316       1.021327       0.060000                    
      -3.725972      -9.271783       2.570671       0.060000                    
      -5.217013      -8.398283       0.766629       0.060000                    
      -5.165770      -7.370965       2.226220       0.060000                    
      -3.743244      -6.897590      -0.408338       0.060000                    
      -5.091165      -5.951062       0.281266       0.060000                    
      -3.691567      -5.162846       2.076920       0.060000                    
      -2.856332      -4.862380       0.527577       0.060000                    
      -1.416535      -6.763207       0.872027       0.060000                    
      -1.365286      -5.735889       2.331627       0.060000                    
      -2.839060      -7.236573       3.506586       0.060000                    
      -1.491131      -8.183110       2.816976       0.060000                    
      -8.851602       4.511070       0.269783      -0.120000                    
      -8.855984       5.781025      -0.583525      -0.120000                    
      -8.016498       5.621593      -1.852719      -0.120000                    
      -6.596253       5.143262      -1.544387      -0.120000                    
      -6.591886       3.873307      -0.691081      -0.120000                    
      -7.431358       4.032739       0.578116      -0.120000                    
      -9.372827       3.725526      -0.273275       0.060000                    
      -9.359166       4.721354       1.208764       0.060000                    
      -9.881481       6.003484      -0.870668       0.060000                    
      -8.443583       6.597339       0.005781       0.060000                    
      -8.497508       4.889610      -2.498045       0.060000                    
      -7.957549       6.585506      -2.353896       0.060000                    
      -6.075035       5.928806      -1.001336       0.060000                    
      -6.088694       4.932988      -2.483375       0.060000                    
      -7.004272       3.057003      -1.280383       0.060000                    
      -5.566374       3.650858      -0.403934       0.060000                    
      -6.950352       4.764723       1.223434       0.060000                    
      -7.490307       3.068836       1.079294       0.060000                    
      -1.261171      -6.284462      -7.224313      -0.120000                    
      -1.058903      -6.933584      -5.853669      -0.120000                    
      -2.175195      -6.564638      -4.874484      -0.120000                    
      -2.367791      -5.050460      -4.768747      -0.120000                    
      -2.570068      -4.401349      -6.139388      -0.120000                    
      -1.453767      -4.770284      -7.118577      -0.120000                    
      -2.146619      -6.716124      -7.686185       0.060000                    
      -0.382797      -6.481354      -7.835334       0.060000                    
      -1.049263      -8.014211      -5.978772       0.060000                    
      -0.110409      -6.592615      -5.444076       0.060000                    
      -3.104672      -7.009847      -5.223089       0.060000                    
      -1.916965      -6.951741      -3.891056       0.060000                    
      -1.482351      -4.618808      -4.306871       0.060000                    
      -3.246165      -4.853578      -4.157727       0.060000                    
      -3.518553      -4.742318      -6.548985       0.060000                    
      -2.579708      -3.320722      -6.014284       0.060000                    
      -0.524299      -4.325086      -6.769967       0.060000                    
      -1.711997      -4.383191      -8.102005       0.060000                    
      11.027593       0.577907       2.693735      -0.120000                    
      10.654812      -0.783319       2.103028      -0.120000                    
       9.156646      -0.890657       1.811433      -0.120000                    
       8.307920      -0.545896       3.036922      -0.120000                    
       8.680704       0.815329       3.627639      -0.120000                    
      10.178871       0.922667       3.919234      -0.120000                    
      10.868962       1.341408       1.935025       0.060000                    
      12.073794       0.553159       2.991169       0.060000                    
      11.200834      -0.919601       1.171950       0.060000                    
      10.926476      -1.558249       2.816716       0.060000                    
       8.907884      -0.198000       1.010216       0.060000                    
       8.933429      -1.912004       1.510149       0.060000                    
       8.466555      -1.309398       3.795641       0.060000                    
       7.261718      -0.521149       2.739489       0.060000                    
       8.409035       1.590259       2.913942       0.060000                    
       8.134677       0.951611       4.558707       0.060000                    
      10.427633       0.230010       4.720450       0.060000                    
      10.402089       1.944013       4.220517       0.060000                    
       6.252530      -4.766989       2.510193      -0.120000                    
       5.671144      -6.022186       3.163875      -0.120000                    
       5.154528      -5.745402       4.577200      -0.120000                    
       6.216354      -5.081025       5.455879      -0.120000                    
       6.797739      -3.825829       4.802198      -0.120000                    
       7.314355      -4.102612       3.388872      -0.120000                    
       5.445660      -4.056624       2.342803       0.060000                    
       6.710279      -5.047901       1.564043       0.060000                    
       4.843527      -6.379766       2.555002       0.060000                    
       6.451767      -6.777874       3.220874       0.060000                    
       4.294710      -5.082249       4.509426       0.060000                    
       4.867168      -6.690340       5.033562       0.060000                    
       7.023223      -5.791390       5.623271       0.060000                    
       5.758604      -4.800113       6.402030       0.060000                    
       6.017116      -3.070140       4.745199       0.060000                    
       7.625357      -3.468248       5.411070       0.060000                    
       8.174173      -4.765765       3.456647       0.060000                    
       7.601715      -3.157675       2.932510       0.060000                    
       4.686898      12.076313      -1.166845      -0.120000                    
       4.570418      11.238458       0.108031      -0.120000                    
       5.499531      10.023108       0.081975      -0.120000                    
       5.303559       9.178584      -1.178731      -0.120000                    
       5.420044      10.016430      -2.453599      -0.120000                    
       4.490926      11.231779      -2.427552      -0.120000                    
       5.677772      12.524360      -1.199097       0.060000                    
       3.923088      12.850697      -1.144955       0.060000                    
       4.836812      11.861551       0.959164       0.060000                    
       3.544203      10.889582       0.202275       0.060000                    
       6.529545      10.372251       0.109932       0.060000                    
       5.287094       9.404407       0.951328       0.060000                    
       4.312685       8.730529      -1.146480       0.060000                    
       6.067369       8.404191      -1.200622       0.060000                    
       6.446258      10.365306      -2.547843       0.060000                    
       5.153650       9.393346      -3.304731       0.060000                    
       3.460912      10.882636      -2.455509       0.060000                    
       4.703362      11.850481      -3.296904       0.060000                    
       0.916531      -4.802740       5.581306      -0.120000                    
      -0.105602      -5.925064       5.772531      -0.120000                    
      -1.150424      -5.573973       6.833724      -0.120000                    
      -0.505664      -5.154529       8.156371      -0.120000                    
       0.516469      -4.032205       7.965147      -0.120000                    
       1.561277      -4.383285       6.903949      -0.120000                    
       0.410074      -3.940528       5.152606       0.060000                    
       1.697207      -5.154110       4.910024       0.060000                    
      -0.614864      -6.096420       4.826574       0.060000                    
       0.420124      -6.824365       6.086431       0.060000                    
      -1.756503      -4.748975       6.465349       0.060000                    
      -1.772245      -6.448741       7.012101       0.060000                    
       0.000784      -6.016731       8.585076       0.060000                    
      -1.286340      -4.803159       8.827653       0.060000                    
      -0.009266      -3.132894       7.651252       0.060000                    
       1.025722      -3.860839       8.911109       0.060000                    
       2.167356      -5.208283       7.272325       0.060000                    
       2.183112      -3.508527       6.725577       0.060000                    
      -6.590117      -5.086773      -4.366702      -0.120000                    
      -7.941901      -5.610451      -4.855933      -0.120000                    
      -8.946601      -4.479096      -5.083166      -0.120000                    