%nprocshared=4                                                                       
%mem=8GB                                                                             
#P pop=chelpg cam-b3lyp/gen scf=qc int=ultrafine charge td(nstates=10)               
                                                                                     
pNA CAM-B3LYP def2-TZVPD Single point - solvent def2-SV(P)                           
                                                                                     
0 1                                                                                  
 C       1.386341       0.000000       0.000000                                 
 C       0.000000       0.000000       0.000000                                 
 C      -0.712907       1.188984      -0.000000                                 
 C      -0.035635       2.384357       0.000131                                 
 C       1.365534       2.410943       0.000833                                 
 C       2.063239       1.195576       0.000133                                 
 H       1.918972      -0.938700       0.000854                                 
 H      -1.791888       1.163049       0.000837                                 
 H      -0.586620       3.315732      -0.002113                                 
 H       3.145392       1.202000      -0.002090                                 
 N      -0.713906      -1.260429       0.001744                                 
 O      -1.931758      -1.232720       0.002551                                 
 O      -0.063858      -2.290656       0.002518                                 
 N       2.037885       3.598040      -0.033161                                 
 H       1.540331       4.445798       0.174764                                 
 H       3.020819       3.607257       0.174736                                 
 C       5.898402       3.945597       1.168882                                 
 C       6.011285       2.511523       1.690051                                 
 C       7.468033       2.083206       1.878381                                 
 C       8.297589       2.299363       0.611060                                 
 C       8.184707       3.733437       0.089892                                 
 C       6.727963       4.161755      -0.098451                                 
 H       6.257244       4.624805       1.939312                                 
 H       4.854809       4.151455       0.940601                                 
 H       5.503790       2.449630       2.650351                                 
 H       5.542336       1.842539       0.971579                                 
 H       7.902478       2.672610       2.683044                                 
 H       7.489367       1.025294       2.131601                                 
 H       7.938754       1.620150      -0.159374                                 
 H       9.341182       2.093505       0.839342                                 
 H       8.653654       4.402421       0.808363                                 
 H       8.692201       3.795331      -0.870409                                 
 H       6.293513       3.572350      -0.903101                                 
 H       6.706630       5.219660      -0.351664                                 
 C      -5.607178       0.885347       0.108364                                 
 C      -5.666943       2.267584      -0.544876                                 
 C      -4.486022       3.148311      -0.131627                                 
 C      -4.342843       3.238780       1.389015                                 
 C      -4.283086       1.856544       2.042245                                 
 C      -5.463999       0.975805       1.628997                                 
 H      -4.748561       0.349145      -0.290378                                 
 H      -6.526328       0.351313      -0.123130                                 
 H      -5.646116       2.142688      -1.625431                                 
 H      -6.589321       2.756995      -0.239294                                 
 H      -3.573418       2.721213      -0.541970                                 
 H      -4.644500       4.149833      -0.526084                                 
 H      -5.201459       3.774982       1.787757                                 
 H      -3.423700       3.772808       1.620506                                 
 H      -3.360707       1.367127       1.736670                                 
 H      -4.303904       1.981439       3.122810                                 
 H      -6.376602       1.402914       2.039350                                 
 H      -5.305521      -0.025706       2.023463                                 
 C      -3.687335      -5.502202      -1.121202                                 
 C      -2.515183      -5.753414      -2.071906                                 
 C      -1.358905      -6.475946      -1.377679                                 
 C      -0.917523      -5.757139      -0.101167                                 
 C      -2.089682      -5.505915       0.849536                                 
 C      -3.245960      -4.783388       0.155316                                 
 H      -4.124364      -6.460136      -0.847364                                 
 H      -4.422763      -4.884049      -1.631704                                 
 H      -2.863653      -6.369053      -2.898449                                 
 H      -2.155080      -4.795278      -2.440684                                 
 H      -1.683737      -7.480827      -1.116269                                 
 H      -0.514436      -6.518533      -2.062359                                 
 H      -0.480495      -4.799198      -0.375012                                 
 H      -0.182102      -6.375285       0.409341                                 
 H      -2.449786      -6.464051       1.218313                                 
 H      -1.741205      -4.890287       1.676082                                 
 H      -2.921122      -3.778507      -0.106108                                 
 H      -4.090424      -4.740801       0.839983                                 
 C      -1.958910       4.683813       5.428346                                 
 C      -0.749080       5.594586       5.646765                                 
 C      -0.067690       5.968270       4.328776                                 
 C       0.286797       4.734230       3.496580                                 
 C      -0.923030       3.823462       3.278178                                 
 C      -1.604422       3.449765       4.596158                                 
 H      -2.728156       5.247200       4.904400                                 
 H      -2.326372       4.355272       6.398184                                 
 H      -1.084356       6.506811       6.135674                                 
 H      -0.029714       5.072641       6.274259                                 
 H      -0.745778       6.593606       3.751887                                 
 H       0.848095       6.511408       4.552629                                 
 H       1.056043       4.170843       4.020526                                 
 H       0.654268       5.062770       2.526753                                 
 H      -1.642399       4.345401       2.650668                                 
 H      -0.587750       2.911237       2.789255                                 
 H      -0.926334       2.824430       5.173047                                 
 H      -2.520207       2.906634       4.372297                                 
 C       1.946748      -0.742143       3.434572                                 
 C       2.517100       0.559235       4.001971                                 
 C       3.927853       0.370011       4.563209                                 
 C       3.992875      -0.774207       5.576879                                 
 C       3.422516      -2.075591       5.009478                                 
 C       2.011763      -1.886367       4.448239                                 
 H       2.525568      -1.021930       2.556876                                 
 H       0.906263      -0.576661       3.163360                                 
 H       2.556406       1.298399       3.204691                                 
 H       1.867204       0.903249       4.803809                                 
 H       4.602139       0.143889       3.739914                                 
 H       4.231556       1.290253       5.057808                                 
 H       3.414047      -0.494427       6.454573                                 
 H       5.033353      -0.939695       5.848089                                 
 H       4.072418      -2.419611       4.207634                                 
 H       3.383216      -2.814760       5.806752                                 
 H       1.337477      -1.660245       5.271534                                 
 H       1.708059      -2.806609       3.953640                                 
 C       3.531823       6.091128      -5.419340                                 
 C       4.238803       4.894283      -6.058615                                 
 C       3.773328       3.566107      -5.458355                                 
 C       3.891347       3.553718      -3.932950                                 
 C       3.184360       4.750551      -3.293670                                 
 C       3.649850       6.078727      -3.893931                                 
 H       2.477842       6.055871      -5.686779                                 
 H       3.986246       7.005103      -5.795766                                 
 H       4.020073       4.889822      -7.124317                                 
 H       5.309530       4.994127      -5.893565                                 
 H       2.731018       3.409150      -5.727721                                 
 H       4.391687       2.766786      -5.861413                                 
 H       4.945335       3.588964      -3.665507                                 
 H       3.436926       2.639737      -3.556515                                 
 H       2.113640       4.650720      -3.458724                                 
 H       3.403099       4.755018      -2.227964                                 
 H       4.692153       6.235690      -3.624560                                 
 H       3.031489       6.878055      -3.490881                                 
                                                                                
       1.480639      -2.220238      -3.394172      -0.120000                    
       2.989669      -1.986602      -3.299097      -0.120000                    
       3.770618      -2.887533      -4.257991      -0.120000                    
       3.406963      -4.363304      -4.082355      -0.120000                    
       1.897918      -4.596934      -4.177436      -0.120000                    
       1.116976      -3.696014      -3.218540      -0.120000                    
       1.139032      -1.892192      -4.373642       0.060000                    
       0.989834      -1.645723      -2.611459       0.060000                    
       3.197376      -0.948668      -3.550423       0.060000                    
       3.311174      -2.200168      -2.281894       0.060000                    
       3.539419      -2.591607      -5.279071       0.060000                    
       4.833732      -2.765676      -4.061352       0.060000                    
       3.748563      -4.691338      -3.102888       0.060000                    
       3.897753      -4.937813      -4.865074       0.060000                    
       1.576421      -4.383379      -5.194637       0.060000                    
       1.690227      -5.634874      -3.926105       0.060000                    
       1.348182      -3.991930      -2.197465       0.060000                    
       0.053869      -3.817859      -3.415184       0.060000                    
       6.400672      -3.884923      -0.481831      -0.120000                    
       5.049401      -4.016356       0.223639      -0.120000                    
       4.773904      -2.836965       1.158596      -0.120000                    
       5.917992      -2.611224       2.149096      -0.120000                    
       7.269270      -2.479786       1.443629      -0.120000                    
       7.544754      -3.659176       0.508674      -0.120000                    
       6.356928      -3.036630      -1.161667       0.060000                    
       6.595039      -4.801703      -1.034423       0.060000                    
       4.265730      -4.052882      -0.530129       0.060000                    
       5.051284      -4.932330       0.810715       0.060000                    
       4.651734      -1.938194       0.557825       0.060000                    
       3.864359      -3.042723       1.719045       0.060000                    
       5.961744      -3.459511       2.828934       0.060000                    
       5.723632      -1.694438       2.701691       0.060000                    
       7.267388      -1.563811       0.856553       0.060000                    
       8.052934      -2.443264       2.197394       0.060000                    
       7.666931      -4.557942       1.109448       0.060000                    
       8.454305      -3.453423      -0.051781       0.060000                    
      -4.102551       8.253716       0.437594      -0.120000                    
      -3.759801       7.131777      -0.544563      -0.120000                    
      -2.544811       6.321650      -0.087921      -0.120000                    
      -1.337747       7.214790       0.205811      -0.120000                    
      -1.680495       8.336723       1.187975      -0.120000                    
      -2.895485       9.146852       0.731334      -0.120000                    
      -4.440364       7.807788       1.370733       0.060000                    
      -4.890902       8.865906       0.004815       0.060000                    
      -4.614702       6.463224      -0.620843       0.060000                    
      -3.538673       7.573680      -1.513837       0.060000                    
      -2.807569       5.782606       0.819820       0.060000                    
      -2.276265       5.622837      -0.877404       0.060000                    
      -0.999932       7.660712      -0.727321       0.060000                    
      -0.549401       6.602601       0.638604       0.060000                    
      -1.901630       7.894826       2.157255       0.060000                    
      -0.825594       9.005277       1.264256       0.060000                    
      -2.632727       9.685894      -0.176408       0.060000                    
      -3.164038       9.845670       1.520822       0.060000                    
      -4.303185      -2.072503      -5.679330      -0.120000                    
      -5.443654      -1.743989      -4.713758      -0.120000                    
      -5.074370      -0.609976      -3.755296      -0.120000                    
      -3.761801      -0.886089      -3.019135      -0.120000                    
      -2.621338      -1.214597      -3.984702      -0.120000                    
      -2.990623      -2.348604      -4.943171      -0.120000                    
      -4.156536      -1.224874      -6.345454       0.060000                    
      -4.574822      -2.958148      -6.249787       0.060000                    
      -6.313058      -1.440357      -5.293012       0.060000                    
      -5.671316      -2.632928      -4.129281       0.060000                    
      -4.964938       0.308092      -4.328674       0.060000                    
      -5.869392      -0.503301      -3.020279       0.060000                    
      -3.908457      -1.733706      -2.353013       0.060000                    
      -3.490170      -0.000439      -2.448672       0.060000                    
      -2.393671      -0.325658      -4.569192       0.060000                    
      -1.751929      -1.518229      -3.405461       0.060000                    
      -3.100061      -3.266684      -4.369789       0.060000                    
      -2.195595      -2.455285      -5.678194       0.060000                    
       3.463706       8.361410       1.425468      -0.120000                    
       4.532500       7.379915       0.940394      -0.120000                    
       5.636741       8.081219       0.146800      -0.120000                    
       5.072453       8.925622      -0.997554      -0.120000                    
       4.003660       9.907111      -0.512471      -0.120000                    
       2.899419       9.205813       0.281115      -0.120000                    
       3.910871       9.026937       2.160850       0.060000                    
       2.649946       7.795615       1.874074       0.060000                    
       4.979891       6.897058       1.806573       0.060000                    
       4.059314       6.639945       0.298363       0.060000                    
       6.188660       8.733162       0.820582       0.060000                    
       6.297513       7.325162      -0.272112       0.060000                    
       4.625289       8.260095      -1.732935       0.060000                    
       5.886214       9.491417      -1.446160       0.060000                    
       4.476845      10.647087       0.129553       0.060000                    
       3.556261      10.389962      -1.378653       0.060000                    
       2.347500       8.553870      -0.392667       0.060000                    
       2.238647       9.961870       0.700026       0.060000                    
      -0.427060       4.405149      -5.580292      -0.120000                    
      -1.396433       5.124521      -4.640216      -0.120000                    
      -2.232808       4.141910      -3.818035      -0.120000                    
      -2.946170       3.116782      -4.701928      -0.120000                    
      -1.976797       2.397408      -5.642004      -0.120000                    
      -1.140423       3.380027      -6.464193      -0.120000                    
       0.319177       3.887910      -4.980888       0.060000                    
       0.049474       5.144454      -6.220522       0.060000                    
      -0.821578       5.747274      -3.958132       0.060000                    
      -2.068025       5.738436      -5.236652       0.060000                    
      -1.573610       3.612039      -3.133687       0.060000                    
      -2.981488       4.702751      -3.262478       0.060000                    
      -3.692406       3.634020      -5.301331       0.060000                    
      -3.422705       2.377482      -4.061705       0.060000                    
      -1.305199       1.783494      -5.045581       0.060000                    
      -2.551646       1.774650      -6.324093       0.060000                    
      -1.799620       3.909892      -7.148532       0.060000                    
      -0.391741       2.819179      -7.019742       0.060000                    
       6.608564       0.292200      -2.434508      -0.120000                    
       6.381841       1.001087      -3.771290      -0.120000                    
       7.030765       0.249923      -4.935611      -0.120000                    
       8.512747      -0.032495      -4.680799      -0.120000                    
       8.739469      -0.741376      -3.344025      -0.120000                    
       8.090547       0.009782      -2.179696      -0.120000                    
       6.071511      -0.653892      -2.447165       0.060000                    
       6.233485       0.928343      -1.635574       0.060000                    
       5.311167       1.066193      -3.953156       0.060000                    
       6.816234       1.996964      -3.714798       0.060000                    
       6.514027      -0.698166      -5.068848       0.060000                    
       6.942073       0.857460      -5.833822       0.060000                    
       9.049800       0.913597      -4.668142       0.060000                    
       8.887832      -0.668644      -5.479739       0.060000                    
       8.305078      -1.737260      -3.400508       0.060000                    
       9.810143      -0.806482      -3.162159       0.060000                    
       8.607288       0.957871      -2.046472       0.060000                    
       8.179237      -0.597755      -1.281485       0.060000                    
      -2.507869      -1.783986       4.822974      -0.120000                    
      -2.430805      -1.967612       6.339960      -0.120000                    
      -1.340411      -2.962773       6.742115      -0.120000                    
      -1.484761      -4.298352       6.009724      -0.120000                    
      -1.561825      -4.114727       4.492738      -0.120000                    
      -2.652220      -3.119565       4.090583      -0.120000                    
      -1.594698      -1.298893       4.484617       0.060000                    
      -3.372111      -1.165129       4.591075       0.060000                    
      -2.208422      -1.005195       6.795832       0.060000                    
      -3.389548      -2.340451       6.694186       0.060000                    
      -0.370987      -2.534468       6.496315       0.060000                    
      -1.412520      -3.143705       7.812510       0.060000                    
      -2.397940      -4.783451       6.348078       0.060000                    
      -0.620525      -4.917203       6.241629       0.060000                    
      -0.603083      -3.741887       4.138513       0.060000                    
      -1.784208      -5.077143       4.036867       0.060000                    
      -3.621644      -3.547870       4.336383       0.060000                    
      -2.580110      -2.938634       3.020189       0.060000                    
      -9.492796      -3.828877      -0.515127      -0.120000                    
      -8.656288      -4.840440      -1.301178      -0.120000                    
      -7.168783      -4.482233      -1.294626      -0.120000                    
      -6.922657      -3.046978      -1.764163      -0.120000                    
      -7.759166      -2.035427      -0.978121      -0.120000                    
      -9.246664      -2.393629      -0.984670      -0.120000                    
      -9.226746      -3.900797       0.537368       0.060000                    
     -10.545591      -4.064775      -0.655161       0.060000                    
      -8.779684      -5.821321      -0.847018       0.060000                    
      -9.005868      -4.854913      -2.331358       0.060000                    
      -6.790723      -4.585691      -0.279747       0.060000                    
      -6.644656      -5.161578      -1.963592       0.060000                    
      -7.188708      -2.975058      -2.816658       0.060000                    
      -5.869868      -2.811092      -1.624124       0.060000                    
      -7.409593      -2.020948       0.052065       0.060000                    
      -7.635769      -1.054546      -1.432281       0.060000                    
      -9.624737      -2.290170      -1.999547       0.060000                    
      -9.770797      -1.714277      -0.315698       0.060000                    
       1.594092      -8.472311       2.337839      -0.120000                    
       1.018720      -8.898176       3.690057      -0.120000                    
       0.525703      -7.701213       4.505666      -0.120000                    
       1.603797      -6.625808       4.654639      -0.120000                    
       2.179168      -6.199954       3.302413      -0.120000                    
       2.672184      -7.396917       2.486804      -0.120000                    
       0.787199      -8.073374       1.726733       0.060000                    
       2.035673      -9.343157       1.858070       0.060000                    
       0.180172      -9.568996       3.515419       0.060000                    
       1.797423      -9.406573       4.254696       0.060000                    
      -0.332697      -7.265157       3.999083       0.060000                    
       0.242300      -8.048995       5.496833       0.060000                    
       2.410696      -7.024751       5.265739       0.060000                    
       1.162214      -5.754973       5.134399       0.060000                    
       1.400464      -5.691557       2.737774       0.060000                    
       3.017715      -5.529134       3.477050       0.060000                    
       3.530584      -7.832973       2.993387       0.060000                    
       2.955587      -7.049135       1.495636       0.060000                    
       3.709939       5.972499       5.296649      -0.120000                    
       3.321619       6.916598       6.436285      -0.120000                    
       4.145988       8.205458       6.418812      -0.120000                    
       5.649692       7.923935       6.394983      -0.120000                    
       6.038013       6.979831       5.255355      -0.120000                    
       5.213650       5.690982       5.272823      -0.120000                    
       3.427415       6.432827       4.352228       0.060000                    
       3.181989       5.030669       5.430215       0.060000                    
       2.270124       7.175014       6.330741       0.060000                    
       3.492019       6.407757       7.382682       0.060000                    
       3.884463       8.773409       5.528515       0.060000                    
       3.913783       8.778804       7.313869       0.060000                    
       5.932217       7.463603       7.339413       0.060000                    
       6.177642       8.865767       6.261418       0.060000                    
       5.867611       7.488678       4.308950       0.060000                    
       7.089507       6.721423       5.360891       0.060000                    
       5.475175       5.123031       6.163120       0.060000                    
       5.445848       5.117625       4.377770       0.060000                    
      -0.612202      10.476027      -3.251143      -0.120000                    
       0.816346       9.977249      -3.024568      -0.120000                    
       1.567366       9.771992      -4.341712      -0.120000                    
       0.793447       8.874034      -5.309024      -0.120000                    
      -0.635093       9.372818      -5.535596      -0.120000                    
      -1.386121       9.578070      -4.218454      -0.120000                    
      -0.567925      11.479813      -3.668465       0.060000                    
      -1.132221      10.487253      -2.295623       0.060000                    
       1.351900      10.714500      -2.430241       0.060000                    
       0.773179       9.026612      -2.497208       0.060000                    
       1.716742      10.741824      -4.811554       0.060000                    
       2.526330       9.305521      -4.126059       0.060000                    
       0.749177       7.870255      -4.891699       0.060000                    
       1.313473       8.862813      -6.264541       0.060000                    
      -0.591934      10.323449      -6.062960       0.060000                    
      -1.170641       8.635560      -6.129928       0.060000                    
      -1.535496       8.608236      -3.748613       0.060000                    
      -2.345071      10.044540      -4.434111       0.060000                    
      -8.040365       5.577479       4.690725      -0.120000                    
      -7.794557       6.779272       3.776311      -0.120000                    
      -6.488045       6.644543       2.991551      -0.120000                    
      -5.294549       6.368317       3.908223      -0.120000                    
      -5.540350       5.166530       4.822640      -0.120000                    
      -6.846869       5.301248       5.607405      -0.120000                    
      -8.214044       4.699574       4.072016       0.060000                    
      -8.912517       5.782748       5.307831       0.060000                    
      -8.618505       6.852849       3.069720       0.060000                    
      -7.741291       7.676966       4.388659       0.060000                    
      -6.586918       5.818104       2.290935       0.060000                    
      -6.306963       7.573959       2.455622       0.060000                    
      -5.120858       7.246222       4.526929       0.060000                    
      -4.422384       6.163048       3.291115       0.060000                    
      -5.593609       4.268830       4.210287       0.060000                    
      -4.716396       5.092946       5.529226       0.060000                    
      -6.747981       6.127686       6.308019       0.060000                    
      -7.027938       4.371837       6.143324       0.060000                    
       1.883305      10.287713       4.697926      -0.120000                    
       1.920936      11.683269       5.323977      -0.120000                    
       0.712675      11.938987       6.227166      -0.120000                    