%nprocshared=4                                                                       
%mem=8GB                                                                             
#P pop=chelpg cam-b3lyp/gen scf=qc int=ultrafine charge td(nstates=10)               
                                                                                     
pNA CAM-B3LYP def2-TZVPD Single point - solvent def2-SV(P)                           
                                                                                     
0 1                                                                                  
 C       1.386341       0.000000       0.000000                                 
 C       0.000000       0.000000       0.000000                                 
 C      -0.712907       1.188984      -0.000000                                 
 C      -0.035635       2.384357       0.000131                                 
 C       1.365534       2.410943       0.000833                                 
 C       2.063239       1.195576       0.000133                                 
 H       1.918972      -0.938700       0.000854                                 
 H      -1.791888       1.163049       0.000837                                 
 H      -0.586620       3.315732      -0.002113                                 
 H       3.145392       1.202000      -0.002090                                 
 N      -0.713906      -1.260429       0.001744                                 
 O      -1.931758      -1.232720       0.002551                                 
 O      -0.063858      -2.290656       0.002518                                 
 N       2.037885       3.598040      -0.033161                                 
 H       1.540331       4.445798       0.174764                                 
 H       3.020819       3.607257       0.174736                                 
 C       6.311934       3.096676       1.495666                                 
 C       5.372454       4.304230       1.502893                                 
 C       5.132148       4.851813       0.094566                                 
 C       6.443009       5.149915      -0.636045                                 
 C       7.382489       3.942360      -0.643272                                 
 C       7.622801       3.394770       0.765060                                 
 H       5.813242       2.271148       0.992179                                 
 H       6.540818       2.828035       2.524792                                 
 H       4.417274       3.999148       1.924954                                 
 H       5.819572       5.089014       2.109425                                 
 H       4.576567       4.110919      -0.476436                                 
 H       4.560382       5.774162       0.173042                                 
 H       6.941700       5.975447      -0.132549                                 
 H       6.214130       5.418548      -1.665166                                 
 H       6.935369       3.157580      -1.249795                                 
 H       8.337668       4.247442      -1.065333                                 
 H       8.178374       4.135675       1.336066                                 
 H       8.194560       2.472427       0.686580                                 
 C       0.335346       8.139683       1.270814                                 
 C      -1.122671       8.340717       1.688798                                 
 C      -1.512131       7.438849       2.861788                                 
 C      -1.192881       5.968314       2.584996                                 
 C       0.265136       5.767279       2.167013                                 
 C       0.654597       6.669147       0.994022                                 
 H       0.979055       8.489755       2.075033                                 
 H       0.519194       8.711992       0.364045                                 
 H      -1.258846       9.377930       1.987508                                 
 H      -1.762982       8.104926       0.841409                                 
 H      -0.957519       7.755210       3.742680                                 
 H      -2.581935       7.535785       3.034569                                 
 H      -1.836589       5.618242       1.780777                                 
 H      -1.376729       5.396004       3.491765                                 
 H       0.905447       6.003071       3.014402                                 
 H       0.401312       4.730066       1.868302                                 
 H       0.099984       6.352787       0.113131                                 
 H       1.724401       6.572211       0.821241                                 
 C      -5.214344      -1.488340      -1.712241                                 
 C      -6.471022      -1.490284      -2.584969                                 
 C      -6.595265      -0.210055      -3.413591                                 
 C      -6.502570       1.046213      -2.545171                                 
 C      -5.245893       1.048158      -1.672444                                 
 C      -5.121641      -0.232066      -0.843823                                 
 H      -4.341117      -1.528422      -2.359961                                 
 H      -5.241677      -2.359668      -1.061372                                 
 H      -6.422257      -2.339801      -3.262834                                 
 H      -7.342719      -1.572353      -1.939161                                 
 H      -5.788649      -0.188578      -4.143330                                 
 H      -7.559686      -0.214152      -3.917196                                 
 H      -7.375798       1.086296      -1.897451                                 
 H      -6.475232       1.917535      -3.196036                                 
 H      -4.374188       1.130232      -2.318253                                 
 H      -5.294644       1.897673      -0.994576                                 
 H      -5.928258      -0.253543      -0.114084                                 
 H      -4.157220      -0.227968      -0.340219                                 
 C       4.894710      -1.741681      -2.997411                                 
 C       3.522908      -1.955386      -2.354453                                 
 C       2.743688      -3.086183      -3.029112                                 
 C       2.642648      -2.889044      -4.543020                                 
 C       4.014446      -2.675336      -5.185992                                 
 C       4.793666      -1.544540      -4.511333                                 
 H       5.510808      -2.616644      -2.801125                                 
 H       5.348955      -0.854694      -2.560880                                 
 H       3.665937      -2.208914      -1.306233                                 
 H       2.949237      -1.035450      -2.445355                                 
 H       3.256092      -4.025942      -2.834298                                 
 H       1.738358      -3.111459      -2.613982                                 
 H       2.026546      -2.014073      -4.739310                                 
 H       2.188404      -3.776031      -4.979552                                 
 H       4.588130      -3.595274      -5.095087                                 
 H       3.871416      -2.421803      -6.234202                                 
 H       4.281268      -0.604787      -4.706141                                 
 H       5.798996      -1.519263      -4.926463                                 
 C       1.064255      -3.178628       5.132764                                 
 C      -0.374728      -2.659155       5.153306                                 
 C      -1.308938      -3.525544       4.306153                                 
 C      -0.785693      -3.707695       2.879955                                 
 C       0.653289      -4.227168       2.859413                                 
 C       1.587499      -3.360778       3.706565                                 
 H       1.093774      -4.140954       5.639469                                 
 H       1.700191      -2.461511       5.647475                                 
 H      -0.731850      -2.664913       6.180940                                 
 H      -0.384440      -1.646327       4.756092                                 
 H      -1.393833      -4.504541       4.773048                                 
 H      -2.283337      -3.043718       4.260087                                 
 H      -0.815214      -2.745363       2.373258                                 
 H      -1.421630      -4.424811       2.365243                                 
 H       0.663001      -5.239995       3.256626                                 
 H       1.010412      -4.221410       1.831779                                 
 H       1.672388      -2.381775       3.239666                                 
 H       2.561897      -3.842601       3.752639                                 
 C      -3.692410      -0.378695       3.103492                                 
 C      -5.183727      -0.188251       3.387392                                 
 C      -5.697964       1.157407       2.871825                                 
 C      -4.861467       2.328193       3.391915                                 
 C      -3.370144       2.137742       3.108019                                 
 C      -2.855911       0.792087       3.623573                                 
 H      -3.550429      -0.456528       2.027652                                 
 H      -3.358488      -1.289967       3.595062                                 
 H      -5.736268      -0.984233       2.892709                                 
 H      -5.341228      -0.231608       4.462998                                 
 H      -5.652689       1.153563       1.784840                                 
 H      -6.724994       1.288310       3.206231                                 
 H      -5.003447       2.406022       4.467746                                 
 H      -5.195382       3.239454       2.900341                                 
 H      -3.212647       2.181102       2.032400                                 
 H      -2.817608       2.933728       3.602690                                 
 H      -2.901189       0.795935       4.710567                                 
 H      -1.828882       0.661185       3.289167                                 
                                                                                
       5.006885       3.196365      -4.134202      -0.120000                    
       4.020333       2.349602      -3.327614      -0.120000                    
       2.742827       2.052149      -4.115319      -0.120000                    
       2.093794       3.327124      -4.657763      -0.120000                    
       3.080355       4.173892      -5.464353      -0.120000                    
       4.357853       4.471339      -4.676645      -0.120000                    
       5.367062       2.605381      -4.973642       0.060000                    
       5.835180       3.476266      -3.486784       0.060000                    
       4.499069       1.406513      -3.072581       0.060000                    
       3.752947       2.893506      -2.424091       0.060000                    
       2.993899       1.405980      -4.953813       0.060000                    
       2.034930       1.555523      -3.455014       0.060000                    
       1.733626       3.918113      -3.818324       0.060000                    
       1.265499       3.047222      -5.305181       0.060000                    
       3.347733       3.629983      -6.367874       0.060000                    
       2.601618       5.116981      -5.719385       0.060000                    
       4.106789       5.117515      -3.838154       0.060000                    
       5.065752       4.967978      -5.336957       0.060000                    
       3.315974       9.575353      -2.031270      -0.120000                    
       2.734577       9.821489      -3.424956      -0.120000                    
       1.552464       8.897322      -3.724207      -0.120000                    
       1.905149       7.425149      -3.502151      -0.120000                    
       2.486522       7.179021      -2.108484      -0.120000                    
       3.668644       8.103163      -1.809219      -0.120000                    
       2.577594       9.871705      -1.289205       0.060000                    
       4.220494      10.169868      -1.921892       0.060000                    
       2.392761      10.852719      -3.481959       0.060000                    
       3.512910       9.640561      -4.163305       0.060000                    
       0.729110       9.161031      -3.063781       0.060000                    
       1.260441       9.031898      -4.763590       0.060000                    
       2.643514       7.128780      -4.244221       0.060000                    
       1.000608       6.830624      -3.611538       0.060000                    
       1.708192       7.359931      -1.370125       0.060000                    
       2.828341       6.147772      -2.051471       0.060000                    
       4.492001       7.839467      -2.469650       0.060000                    
       3.960666       7.968587      -0.769835       0.060000                    
      -0.524107      -0.978109      -4.146134      -0.120000                    
      -1.981238      -1.294869      -3.803666      -0.120000                    
      -2.743393      -1.856506      -5.005621      -0.120000                    
      -2.627109      -0.950007      -6.232704      -0.120000                    
      -1.169986      -0.633248      -6.575162      -0.120000                    
      -0.407830      -0.071615      -5.373215      -0.120000                    
      -0.004735      -1.911467      -4.352935       0.060000                    
      -0.069112      -0.473309      -3.296610       0.060000                    
      -1.998066      -2.033667      -3.005268       0.060000                    
      -2.469532      -0.378136      -3.479857       0.060000                    
      -2.331005      -2.832190      -5.253798       0.060000                    
      -3.794291      -1.947718      -4.739172       0.060000                    
      -3.146489      -0.016654      -6.025901       0.060000                    
      -3.082104      -1.454807      -7.082228       0.060000                    
      -0.681693      -1.549981      -6.898971       0.060000                    
      -1.153150       0.105551      -7.373570       0.060000                    
      -0.820218       0.904069      -5.125038       0.060000                    
       0.643068       0.019597      -5.639664       0.060000                    
      -4.438976       4.169487      -5.407989      -0.120000                    
      -3.112400       3.922857      -6.129270      -0.120000                    
      -2.015476       3.458929      -5.168753      -0.120000                    
      -1.853879       4.409632      -3.980898      -0.120000                    
      -3.180456       4.656262      -3.259617      -0.120000                    
      -4.277374       5.120184      -4.220129      -0.120000                    
      -4.818182       3.217564      -5.042329       0.060000                    
      -5.141246       4.609815      -6.112658       0.060000                    
      -3.263978       3.152286      -6.882141       0.060000                    
      -2.793828       4.851330      -6.598374       0.060000                    
      -2.277851       2.472784      -4.791605       0.060000                    
      -1.073279       3.417079      -5.711221       0.060000                    
      -1.474667       5.361566      -4.346551       0.060000                    
      -1.151605       3.969298      -3.276226       0.060000                    
      -3.499014       3.727788      -2.790510       0.060000                    
      -3.028872       5.426827      -2.506742       0.060000                    
      -4.015006       6.106341      -4.597273       0.060000                    
      -5.219577       5.162041      -3.677665       0.060000                    
       3.622938       1.641687       4.116582      -0.120000                    
       2.361841       2.075901       4.866219      -0.120000                    
       2.574407       3.379659       5.638257      -0.120000                    
       3.793140       3.307674       6.560470      -0.120000                    
       5.054237       2.873465       5.810841      -0.120000                    
       4.841666       1.569710       5.038790      -0.120000                    
       3.825290       2.364274       3.328809       0.060000                    
       3.451460       0.655900       3.689441       0.060000                    
       1.562296       2.225988       4.143897       0.060000                    
       2.090576       1.293985       5.572396       0.060000                    
       2.726156       4.186007       4.923826       0.060000                    
       1.691324       3.573131       6.243630       0.060000                    
       3.590788       2.585088       7.348242       0.060000                    
       3.964619       4.293462       6.987611       0.060000                    
       5.325502       3.655377       5.104656       0.060000                    
       5.853776       2.723386       6.533159       0.060000                    
       4.689915       0.763367       5.753230       0.060000                    
       5.724753       1.376236       4.433430       0.060000                    
       7.336145      -4.858057       1.536814      -0.120000                    
       8.278774      -4.075419       2.453206      -0.120000                    
       7.565884      -2.917295       3.154302      -0.120000                    
       6.842471      -2.004536       2.162045      -0.120000                    
       5.899828      -2.787173       1.245651      -0.120000                    
       6.612726      -3.945286       0.544562      -0.120000                    
       6.592936      -5.361973       2.151149       0.060000                    
       7.919908      -5.586089       0.977576       0.060000                    
       8.669465      -4.752372       3.209990       0.060000                    
       9.091171      -3.671231       1.852916       0.060000                    
       6.833811      -3.327697       3.846611       0.060000                    
       8.305666      -2.328517       3.692645       0.060000                    
       7.585675      -1.500609       1.547716       0.060000                    
       6.258695      -1.276503       2.721281       0.060000                    
       5.087439      -3.191351       1.845948       0.060000                    
       5.509146      -2.110214       0.488865       0.060000                    
       7.344800      -3.534890      -0.147755       0.060000                    
       5.872950      -4.534071       0.006223       0.060000                    
      -7.454502       5.416396       1.002513      -0.120000                    
      -6.575890       4.650144       0.011681      -0.120000                    
      -5.112931       5.092700       0.081729      -0.120000                    
      -4.964203       6.607595      -0.072994      -0.120000                    
      -5.842816       7.373852       0.917846      -0.120000                    
      -7.305779       6.931299       0.847786      -0.120000                    
      -7.161556       5.139738       2.013119       0.060000                    
      -8.493923       5.149137       0.824403       0.060000                    
      -6.629875       3.589413       0.247232       0.060000                    
      -6.946436       4.832514      -0.994847       0.060000                    
      -4.707155       4.800400       1.047920       0.060000                    
      -4.563561       4.605624      -0.721179       0.060000                    
      -5.257154       6.884260      -1.083604       0.060000                    
      -3.924788       6.874866       0.105120       0.060000                    
      -5.472268       7.191477       1.924366       0.060000                    
      -5.788831       8.434582       0.682297       0.060000                    
      -7.711557       7.223602      -0.118397       0.060000                    
      -7.855153       7.418366       1.650709       0.060000                    
       0.803118      -7.770171      -0.213838      -0.120000                    
       2.154564      -7.092013       0.019813      -0.120000                    
       3.266909      -7.727511      -0.816738      -0.120000                    
       3.342999      -9.242081      -0.613555      -0.120000                    
       1.991553      -9.920238      -0.847206      -0.120000                    
       0.879208      -9.284741      -0.010655      -0.120000                    
       0.486714      -7.571964      -1.235698       0.060000                    
       0.082215      -7.360697       0.490577       0.060000                    
       2.069198      -6.042805      -0.254883       0.060000                    
       2.413760      -7.186674       1.072218       0.060000                    
       3.069217      -7.527179      -1.867633       0.060000                    
       4.217763      -7.288939      -0.521368       0.060000                    
       3.659403      -9.440288       0.408305       0.060000                    
       4.063893      -9.651557      -1.317959       0.060000                    
       1.732363      -9.825585      -1.899606       0.060000                    
       2.076920     -10.969447      -0.572510       0.060000                    
       1.076899      -9.485069       1.040249       0.060000                    
      -0.071647      -9.723310      -0.306016       0.060000                    
       3.072311       8.096874       3.650140      -0.120000                    
       4.122872       7.453128       4.557208      -0.120000                    
       4.085647       8.027722       5.974785      -0.120000                    
       4.184466       9.554562       5.977269      -0.120000                    
       3.133914      10.198313       5.070198      -0.120000                    
       3.171139       9.623719       3.652622      -0.120000                    
       2.084328       7.811848       4.005636       0.060000                    
       3.224988       7.740241       2.633710       0.060000                    
       3.928351       6.384032       4.610228       0.060000                    
       5.107878       7.636906       4.133337       0.060000                    
       3.146566       7.739341       6.442295       0.060000                    
       4.925997       7.624057       6.535697       0.060000                    
       5.172458       9.839593       5.621770       0.060000                    
       4.031798       9.911201       6.993696       0.060000                    
       2.148907      10.014535       5.494070       0.060000                    
       3.328435      11.267408       5.017178       0.060000                    
       4.110219       9.912105       3.185120       0.060000                    
       2.330781      10.027378       3.091711       0.060000                    
      -1.075166      -5.133896      -4.571436      -0.120000                    
       0.042994      -5.901595      -3.863446      -0.120000                    
       0.700583      -6.933304      -4.782239      -0.120000                    
      -0.326628      -7.872813      -5.417146      -0.120000                    
      -1.444794      -7.105106      -6.125141      -0.120000                    
      -2.102376      -6.073409      -5.206352      -0.120000                    
      -0.634133      -4.520754      -5.354511       0.060000                    
      -1.582316      -4.506509      -3.841551       0.060000                    
       0.800937      -5.191620      -3.539235       0.060000                    
      -0.380226      -6.419790      -3.005531       0.060000                    
       1.227215      -6.406865      -5.575408       0.060000                    
       1.398397      -7.526762      -4.195264       0.060000                    
      -0.767660      -8.485959      -4.634080       0.060000                    
       0.180522      -8.500199      -6.147031       0.060000                    
      -1.021569      -6.586918      -6.983051       0.060000                    
      -2.202730      -7.815093      -6.449357       0.060000                    
      -2.629015      -6.599836      -4.413178       0.060000                    
      -2.800196      -5.479944      -5.793332       0.060000                    
      -4.218235      -6.690933       0.173655      -0.120000                    
      -3.271614      -7.389991      -0.804108      -0.120000                    
      -3.252679      -8.906048      -0.598606      -0.120000                    
      -2.957371      -9.283984       0.854305      -0.120000                    
      -3.903979      -8.584923       1.832080      -0.120000                    
      -3.922922      -7.068871       1.626579      -0.120000                    
      -5.239290      -6.984103      -0.061187       0.060000                    
      -4.099705      -5.615116       0.063325       0.060000                    
      -3.603329      -7.180849      -1.818936       0.060000                    
      -2.265688      -7.005571      -0.649149       0.060000                    
      -4.227168      -9.305967      -0.870715       0.060000                    
      -2.478946      -9.333227      -1.233073       0.060000                    
      -1.936309      -8.990821       1.089152       0.060000                    
      -3.075895     -10.359809       0.964639       0.060000                    
      -4.909919      -8.969341       1.677118       0.060000                    
      -3.572263      -8.794069       2.846899       0.060000                    
      -2.948431      -6.668940       1.898682       0.060000                    
      -4.696654      -6.641692       2.261047       0.060000                    
       9.815814      -1.804680      -2.262265      -0.120000                    
       8.412314      -1.197437      -2.214055      -0.120000                    
       8.391776       0.240589      -2.736222      -0.120000                    
       9.422368       1.122384      -2.028130      -0.120000                    
      10.825869       0.515141      -2.076341      -0.120000                    
      10.846408      -0.922890      -1.554183      -0.120000                    
      10.110744      -1.916460      -3.303531       0.060000                    
       9.791988      -2.774858      -1.770620       0.060000                    
       7.750849      -1.801103      -2.831863       0.060000                    
       8.068741      -1.197416      -1.181762       0.060000                    
       8.618012       0.227388      -3.800308       0.060000                    
       7.401585       0.658108      -2.566142       0.060000                    
       9.127439       1.234164      -0.986864       0.060000                    
       9.446196       2.092557      -2.519784       0.060000                    
      11.169437       0.515122      -3.108646       0.060000                    
      11.487329       1.118814      -1.458536       0.060000                    
      10.620173      -0.909672      -0.490093       0.060000                    
      11.836593      -1.340398      -1.724257       0.060000                    
      -8.060537      -2.961378       3.456541      -0.120000                    
      -8.961603      -1.743202       3.668718      -0.120000                    
     -10.184810      -1.768143       2.749969      -0.120000                    
      -9.794903      -1.943643       1.280903      -0.120000                    
      -8.893836      -3.161819       1.068725      -0.120000                    
      -7.670629      -3.136878       1.987475      -0.120000                    
      -8.595607      -3.850699       3.782856       0.060000                    
      -7.154003      -2.829807       4.043523       0.060000                    
      -9.302753      -1.738761       4.701804       0.060000                    
      -8.386366      -0.844227       3.457451       0.060000                    
     -10.822276      -2.599923       3.042267       0.060000                    
     -10.719708      -0.826856       2.857619       0.060000                    
      -9.259833      -1.054318       0.954597       0.060000                    
     -10.701438      -2.075210       0.693929       0.060000                    
      -9.469074      -4.060790       1.280001       0.060000                    
      -8.552686      -3.166260       0.035640       0.060000                    
      -7.033163      -2.305099       1.695177       0.060000                    
      -7.135730      -4.078166       1.879825       0.060000                    
      -0.288486      -8.585352       3.905042      -0.120000                    
      -1.158954      -7.430386       4.404274      -0.120000                    
      -0.850793      -7.067425       5.858330      -0.120000                    