%nprocshared=4                                                                       
%mem=8GB                                                                             
#P pop=chelpg cam-b3lyp/gen scf=qc int=ultrafine charge td(nstates=10)               
                                                                                     
pNA CAM-B3LYP def2-TZVPD Single point - solvent def2-SV(P)                           
                                                                                     
0 1                                                                                  
 C       1.386341       0.000000       0.000000                                 
 C       0.000000       0.000000       0.000000                                 
 C      -0.712907       1.188984      -0.000000                                 
 C      -0.035635       2.384357       0.000131                                 
 C       1.365534       2.410943       0.000833                                 
 C       2.063239       1.195576       0.000133                                 
 H       1.918972      -0.938700       0.000854                                 
 H      -1.791888       1.163049       0.000837                                 
 H      -0.586620       3.315732      -0.002113                                 
 H       3.145392       1.202000      -0.002090                                 
 N      -0.713906      -1.260429       0.001744                                 
 O      -1.931758      -1.232720       0.002551                                 
 O      -0.063858      -2.290656       0.002518                                 
 N       2.037885       3.598040      -0.033161                                 
 H       1.540331       4.445798       0.174764                                 
 H       3.020819       3.607257       0.174736                                 
 C       4.831889      -3.616903      -0.035952                                 
 C       4.046484      -2.969506       1.106389                                 
 C       3.118674      -3.967763       1.801795                                 
 C       2.200844      -4.684695       0.809520                                 
 C       2.986263      -5.332100      -0.332814                                 
 C       3.914073      -4.333836      -1.028227                                 
 H       5.523316      -4.343515       0.385519                                 
 H       5.378077      -2.839881      -0.566501                                 
 H       4.752454      -2.582869       1.838304                                 
 H       3.443961      -2.160275       0.699219                                 
 H       3.727551      -4.711226       2.311881                                 
 H       2.502462      -3.428716       2.518327                                 
 H       1.509417      -3.958084       0.388049                                 
 H       1.654663      -5.461723       1.340064                                 
 H       3.588780      -6.141330       0.074344                                 
 H       2.280287      -5.718736      -1.064741                                 
 H       3.305196      -3.590373      -1.538313                                 
 H       4.530278      -4.872889      -1.744764                                 
 C       2.448876       7.410153      -0.124846                                 
 C       1.117859       7.650114       0.590413                                 
 C      -0.035161       7.847910      -0.395714                                 
 C       0.269306       8.941183      -1.421901                                 
 C       1.600323       8.701223      -2.137161                                 
 C       2.753343       8.503426      -1.151034                                 
 H       2.398963       6.453475      -0.640542                                 
 H       3.244856       7.397991       0.616699                                 
 H       0.897554       6.786332       1.214123                                 
 H       1.208657       8.544612       1.203031                                 
 H      -0.204812       6.912317      -0.924411                                 
 H      -0.924743       8.132746       0.162159                                 
 H       0.319219       9.897861      -0.906206                                 
 H      -0.526674       8.953339      -2.163439                                 
 H       1.509525       7.806725      -2.749779                                 
 H       1.820620       9.565009      -2.760866                                 
 H       2.922994       9.439020      -0.622337                                 
 H       3.642926       8.218584      -1.708899                                 
 C      -4.277273       1.860831       1.619515                                 
 C      -4.961847       0.794760       0.761776                                 
 C      -5.698238      -0.240677       1.614182                                 
 C      -4.788953      -0.858359       2.678432                                 
 C      -4.104378       0.207712       3.536171                                 
 C      -3.367995       1.243154       2.683770                                 
 H      -5.043528       2.451466       2.117173                                 
 H      -3.674326       2.493714       0.971881                                 
 H      -5.682124       1.283401       0.109108                                 
 H      -4.203930       0.283750       0.171774                                 
 H      -6.532971       0.248664       2.111534                                 
 H      -6.059456      -1.033733       0.962813                                 
 H      -4.022697      -1.448994       2.180774                                 
 H      -5.391900      -1.491232       3.326076                                 
 H      -4.862295       0.718722       4.126173                                 
 H      -3.384101      -0.280929       4.188839                                 
 H      -2.533254       0.753808       2.186414                                 
 H      -3.006776       2.036210       3.335140                                 
 C       6.504318       4.505382      -2.524223                                 
 C       5.208706       4.664884      -1.726170                                 
 C       5.330349       5.740625      -0.644966                                 
 C       6.538262       5.505589       0.264296                                 
 C       7.833874       5.346087      -0.533757                                 
 C       7.712239       4.270351      -1.614956                                 
 H       6.673033       5.413899      -3.098504                                 
 H       6.399431       3.651827      -3.190506                                 
 H       4.411590       4.948132      -2.410273                                 
 H       4.975977       3.715901      -1.247744                                 
 H       5.442424       6.708659      -1.128690                                 
 H       4.428759       5.725164      -0.036206                                 
 H       6.369555       4.597084       0.838576                                 
 H       6.643150       6.359150       0.930572                                 
 H       8.066610       6.295074      -1.012178                                 
 H       8.630998       5.062851       0.150344                                 
 H       7.600164       3.302324      -1.131239                                 
 H       8.613829       4.285812      -2.223716                                 
 C       7.340919       0.517600       3.891608                                 
 C       8.121515       1.584628       3.121500                                 
 C       7.194184       2.549292       2.379525                                 
 C       6.196663       1.811230       1.484415                                 
 C       5.416074       0.744204       2.254511                                 
 C       6.343391      -0.220468       2.996494                                 
 H       6.793027       1.001464       4.697447                                 
 H       8.046314      -0.205294       4.295821                                 
 H       8.721980       2.153793       3.827962                                 
 H       8.762098       1.089842       2.394501                                 
 H       6.639298       3.131080       3.112504                                 
 H       7.800177       3.204974       1.757791                                 
 H       6.744555       1.327372       0.678569                                 
 H       5.491261       2.534125       1.080190                                 
 H       4.775485       1.238988       2.981523                                 
 H       4.815602       0.175043       1.548054                                 
 H       6.898284      -0.802250       2.263519                                 
 H       5.737406      -0.876155       3.618222                                 
 C       5.047732       6.169521       3.223156                                 
 C       4.061790       5.006042       3.345996                                 
 C       2.666526       5.478417       3.759607                                 
 C       2.703460       6.334554       5.027137                                 
 C       3.689403       7.498040       4.904290                                 
 C       5.084673       7.025664       4.490692                                 
 H       4.742664       6.797126       2.388499                                 
 H       6.042410       5.765328       3.047537                                 
 H       3.988660       4.508886       2.381070                                 
 H       4.432299       4.314410       4.099700                                 
 H       2.246716       6.072675       2.950765                                 
 H       2.045479       4.605158       3.947894                                 
 H       3.008529       5.706956       5.861785                                 
 H       1.708783       6.738748       5.202756                                 
 H       3.318894       8.189665       4.150593                                 
 H       3.762526       7.995195       5.869228                                 
 H       5.504478       6.431401       5.299529                                 
 H       5.705714       7.898917       4.302399                                 
                                                                                
      -4.321044      -0.018729      -2.917835      -0.120000                    
      -3.480151      -0.624339      -4.043473      -0.120000                    
      -2.141145       0.096939      -4.210268      -0.120000                    
      -2.320422       1.607157      -4.377829      -0.120000                    
      -3.161315       2.212767      -3.252192      -0.120000                    
      -4.500314       1.491484      -3.085402      -0.120000                    
      -3.820421      -0.206400      -1.970325       0.060000                    
      -5.302348      -0.488293      -2.925672       0.060000                    
      -3.285605      -1.668703      -3.808863       0.060000                    
      -4.036609      -0.544164      -4.974957       0.060000                    
      -1.535497      -0.085225      -3.325052       0.060000                    
      -1.643365      -0.294319      -5.095077       0.060000                    
      -2.821046       1.794835      -5.325347       0.060000                    
      -1.339110       2.076716      -4.369998       0.060000                    
      -2.604857       2.132599      -2.320716       0.060000                    
      -3.355861       3.257130      -3.486802       0.060000                    
      -5.105962       1.673655      -3.970625       0.060000                    
      -4.998101       1.882754      -2.200596       0.060000                    
       2.138899      -2.530886      -3.997695      -0.120000                    
       2.094542      -2.561589      -5.526743      -0.120000                    
       0.702805      -2.225825      -6.066541      -0.120000                    
      -0.381660      -3.107413      -5.443903      -0.120000                    
      -0.337304      -3.076720      -3.914865      -0.120000                    
       1.054434      -3.412484      -3.375068      -0.120000                    
       1.986665      -1.505993      -3.665940       0.060000                    
       3.111337      -2.892825      -3.670725       0.060000                    
       2.802045      -1.829306      -5.909891       0.060000                    
       2.366036      -3.560201      -5.862488       0.060000                    
       0.481403      -1.186216      -5.834542       0.060000                    
       0.700956      -2.380737      -7.143458       0.060000                    
      -0.229427      -4.132323      -5.775661       0.060000                    
      -1.354106      -2.745479      -5.770879       0.060000                    
      -0.608798      -2.078115      -3.579113       0.060000                    
      -1.044807      -3.809003      -3.531718       0.060000                    
       1.275835      -4.452093      -3.607066       0.060000                    
       1.056289      -3.257566      -2.298146       0.060000                    
       5.520969      -0.677070      -4.364399      -0.120000                    
       4.983728      -0.324089      -2.975982      -0.120000                    
       5.970657       0.532619      -2.180348      -0.120000                    
       7.359195      -0.106403      -2.112154      -0.120000                    
       7.896436      -0.459377      -3.500578      -0.120000                    
       6.909506      -1.316085      -4.296212      -0.120000                    
       5.586559       0.234917      -4.954030       0.060000                    
       4.836895      -1.381156      -4.833249       0.060000                    
       4.056232       0.232309      -3.093181       0.060000                    
       4.803730      -1.246573      -2.427959       0.060000                    
       6.057872       1.502904      -2.664702       0.060000                    
       5.591540       0.649336      -1.167262       0.060000                    
       7.293597      -1.018396      -1.522527       0.060000                    
       8.043267       0.597689      -1.643311       0.060000                    
       8.076433       0.463100      -4.048594       0.060000                    
       8.823924      -1.015780      -3.383383       0.060000                    
       6.822291      -2.286377      -3.811850       0.060000                    
       7.288625      -1.432810      -5.309291       0.060000                    
       1.648296       0.999321       3.738169      -0.120000                    
       1.955278      -0.498207       3.801678      -0.120000                    
       0.792778      -1.296877       4.394717      -0.120000                    
       0.350787      -0.744428       5.751366      -0.120000                    
       0.043804       0.753089       5.687848      -0.120000                    
       1.206297       1.551770       5.094805      -0.120000                    
       0.847234       1.159900       3.019687       0.060000                    
       2.547425       1.525588       3.424704       0.060000                    
       2.144742      -0.857417       2.792406       0.060000                    
       2.833612      -0.646911       4.426212       0.060000                    
      -0.049480      -1.247013       3.707883       0.060000                    
       1.111462      -2.328776       4.526705       0.060000                    
       1.151848      -0.905001       6.469841       0.060000                    
      -0.548343      -1.270696       6.064831       0.060000                    
      -0.834537       0.901805       5.063311       0.060000                    
      -0.145660       1.112309       6.697129       0.060000                    
       2.048562       1.501905       5.781651       0.060000                    
       0.887620       2.583668       4.962830       0.060000                    
      -6.641422      -4.924520      -1.554519      -0.120000                    
      -6.173251      -5.695457      -2.790382      -0.120000                    
      -4.648966      -5.815224      -2.847680      -0.120000                    
      -3.961973      -4.453410      -2.727422      -0.120000                    
      -4.430151      -3.682478      -1.491564      -0.120000                    
      -5.954429      -3.562705      -1.434261      -0.120000                    
      -6.407011      -5.511563      -0.669038       0.060000                    
      -7.715281      -4.766773      -1.629289       0.060000                    
      -6.599629      -6.695829      -2.758324       0.060000                    
      -6.514158      -5.168220      -3.678869       0.060000                    
      -4.318542      -6.445225      -2.024565       0.060000                    
      -4.370931      -6.261973      -3.799962       0.060000                    
      -4.196391      -3.866360      -3.612898       0.060000                    
      -2.888114      -4.611156      -2.652653       0.060000                    
      -4.089237      -4.209709      -0.603072       0.060000                    
      -4.003773      -2.682112      -1.523615       0.060000                    
      -6.284853      -2.932710      -2.257369       0.060000                    
      -6.232465      -3.115956      -0.481979       0.060000                    
      -2.773743       6.547132       3.499797      -0.120000                    
      -3.117145       6.340989       4.976453      -0.120000                    
      -1.910601       5.856982       5.783276      -0.120000                    
      -1.269127       4.613096       5.164999      -0.120000                    
      -0.925717       4.819239       3.688355      -0.120000                    
      -2.132268       5.303239       2.881527      -0.120000                    
      -2.074053       7.376239       3.418001       0.060000                    
      -3.689910       6.771659       2.957819       0.060000                    
      -3.454731       7.288734       5.390508       0.060000                    
      -3.905853       5.595120       5.049164       0.060000                    
      -1.169366       6.652835       5.811556       0.060000                    
      -2.241245       5.613326       6.790753       0.060000                    
      -1.968817       3.783989       5.246794       0.060000                    
      -0.352952       4.388574       5.706980       0.060000                    
      -0.137016       5.565107       3.615631       0.060000                    
      -0.588138       3.871486       3.274294       0.060000                    
      -2.873503       4.507393       2.853239       0.060000                    
      -1.801625       5.546902       1.874042       0.060000                    
      -4.668006      -5.850142       1.783594      -0.120000                    
      -3.479203      -5.057894       2.331343      -0.120000                    
      -2.327554      -5.971919       2.754736      -0.120000                    
      -2.787281      -7.060745       3.726398      -0.120000                    
      -3.976078      -7.852991       3.178637      -0.120000                    
      -5.127733      -6.938968       2.755256      -0.120000                    
      -4.370939      -6.321128       0.848928       0.060000                    
      -5.494862      -5.163717       1.614119       0.060000                    
      -3.121778      -4.385506       1.554352       0.060000                    
      -3.809602      -4.490422       3.198798       0.060000                    
      -1.917707      -6.448743       1.866877       0.060000                    
      -1.566324      -5.368027       3.244176       0.060000                    
      -3.084348      -6.589759       4.661065       0.060000                    
      -1.960426      -7.747170       3.895874       0.060000                    
      -3.645685      -8.420458       2.311187       0.060000                    
      -4.333503      -8.525376       3.955645       0.060000                    
      -5.537580      -6.462144       3.643115       0.060000                    
      -5.888963      -7.542860       2.265816       0.060000                    
      -6.147337       4.920682      -2.263953      -0.120000                    
      -5.983177       6.250834      -3.001944      -0.120000                    
      -4.664521       6.942485      -2.650092      -0.120000                    
      -4.484984       7.099611      -1.138792      -0.120000                    
      -4.649145       5.769459      -0.400801      -0.120000                    
      -5.967801       5.077808      -0.752653      -0.120000                    
      -5.397613       4.223720      -2.632515       0.060000                    
      -7.146767       4.536818      -2.457251       0.060000                    
      -6.000168       6.058828      -4.072639       0.060000                    
      -6.805078       6.906900      -2.723115       0.060000                    
      -3.843363       6.343013      -3.037311       0.060000                    
      -4.657897       7.930528      -3.105564       0.060000                    
      -5.234709       7.796574      -0.770230       0.060000                    
      -3.485556       7.483475      -0.945494       0.060000                    
      -3.827244       5.113393      -0.679630       0.060000                    
      -4.632154       5.961466       0.669895       0.060000                    
      -6.788960       5.677280      -0.365433       0.060000                    
      -5.974424       4.089758      -0.297173       0.060000                    
       4.086899       2.689061      -5.907068      -0.120000                    
       3.534962       4.113867      -5.985898      -0.120000                    
       2.505490       4.391186      -4.888469      -0.120000                    
       1.389661       3.344465      -4.871390      -0.120000                    
       1.941598       1.919670      -4.792550      -0.120000                    
       2.971070       1.642351      -5.889978      -0.120000                    
       4.668916       2.591713      -4.993032       0.060000                    
       4.716752       2.511600      -6.776172       0.060000                    
       4.360534       4.813301      -5.872887       0.060000                    
       3.056261       4.248259      -6.953608       0.060000                    
       3.011301       4.375924      -3.925393       0.060000                    
       2.062387       5.368776      -5.066525       0.060000                    
       0.807652       3.441819      -5.785421       0.060000                    
       0.759809       3.521938      -4.002276       0.060000                    
       2.420300       1.785268      -3.824850       0.060000                    
       1.116027       1.220237      -4.905561       0.060000                    
       2.465260       1.657613      -6.853055       0.060000                    
       3.414173       0.664751      -5.711932       0.060000                    
      -2.606497      -3.774873       6.827631      -0.120000                    
      -3.218964      -4.089429       8.193942      -0.120000                    
      -4.694663      -4.478490       8.084626      -0.120000                    
      -5.508026      -3.432874       7.319002      -0.120000                    
      -4.895559      -3.118317       5.952691      -0.120000                    
      -3.419860      -2.729260       6.061991      -0.120000                    
      -2.577045      -4.690450       6.240697       0.060000                    
      -1.599918      -3.390481       6.977985       0.060000                    
      -2.672540      -4.919254       8.637197       0.060000                    
      -3.138162      -3.205479       8.823033       0.060000                    
      -4.765816      -5.427984       7.558312       0.060000                    
      -5.104901      -4.571615       9.088027       0.060000                    
      -5.537477      -2.517307       7.905927       0.060000                    
      -6.514598      -3.817270       7.168643       0.060000                    
      -4.976361      -4.002278       5.323591       0.060000                    
      -5.441983      -2.288503       5.509428       0.060000                    
      -3.348707      -1.779762       6.588321       0.060000                    
      -3.009615      -2.636136       5.058601       0.060000                    
      -1.649000      -8.816941      -4.606798      -0.120000                    
      -0.512721      -9.765892      -4.220479      -0.120000                    
       0.620752      -9.037519      -3.495401      -0.120000                    
       1.126522      -7.830782      -4.288512      -0.120000                    
      -0.009749      -6.881844      -4.674828      -0.120000                    
      -1.143223      -7.610211      -5.399913      -0.120000                    
      -2.127769      -8.459498      -3.697580       0.060000                    
      -2.363401      -9.361588      -5.220419       0.060000                    
      -0.910396     -10.534068      -3.560699       0.060000                    
      -0.112872     -10.216544      -5.126402       0.060000                    
       0.251372      -8.690749      -2.532641       0.060000                    
       1.446388      -9.731980      -3.354854       0.060000                    
       1.605299      -8.188237      -5.197727       0.060000                    
       1.840931      -7.286147      -3.674888       0.060000                    
      -0.409597      -6.431185      -3.768912       0.060000                    
       0.387926      -6.113667      -5.334608       0.060000                    
      -0.773843      -7.956987      -6.362666       0.060000                    
      -1.968857      -6.915748      -5.540461       0.060000                    
       0.907827      -5.862771       6.843227      -0.120000                    
       1.120549      -7.271983       7.399833      -0.120000                    
       2.388949      -7.922361       6.843797      -0.120000                    
       2.421854      -7.899265       5.314293      -0.120000                    
       2.209154      -6.490060       4.757707      -0.120000                    
       0.940753      -5.839674       5.313712      -0.120000                    
       1.699896      -5.217757       7.217767       0.060000                    
      -0.062667      -5.500466       7.175590       0.060000                    
       1.208193      -7.208691       8.482327       0.060000                    
       0.265798      -7.886755       7.125733       0.060000                    
       3.252374      -7.376664       7.218400       0.060000                    
       2.423378      -8.957597       7.176673       0.060000                    
       1.629805      -8.544277       4.939741       0.060000                    
       3.392369      -8.261568       4.981918       0.060000                    
       3.063904      -5.875278       5.031775       0.060000                    
       2.121509      -6.553342       3.675182       0.060000                    
       0.077335      -6.385374       4.939103       0.060000                    
       0.906323      -4.804442       4.980842       0.060000                    
       5.033913      -2.332746       5.795320      -0.120000                    
       4.019626      -3.003464       6.723871      -0.120000                    
       4.701689      -3.823954       7.820497      -0.120000                    
       5.704021      -4.827243       7.246328      -0.120000                    
       6.718308      -4.156525       6.317777      -0.120000                    
       6.036238      -3.336030       5.221156      -0.120000                    
       5.579912      -1.581237       6.361679       0.060000                    
       4.496672      -1.867769       4.971426       0.060000                    
       3.414110      -2.231107       7.193293       0.060000                    
       3.392490      -3.667159       6.132343       0.060000                    
       5.231629      -3.144302       8.484492       0.060000                    
       3.938886      -4.370801       8.370822       0.060000                    
       5.158008      -5.578752       6.679970       0.060000                    
       6.241255      -5.292215       8.070228       0.060000                    
       7.345437      -3.492825       6.909310       0.060000                    
       7.323817      -4.928877       5.848360       0.060000                    
       5.506298      -4.015682       4.557161       0.060000                    
       6.799040      -2.789182       4.670831       0.060000                    
       0.261010      -8.849602       2.058546      -0.120000                    
      -0.708390      -9.986377       1.728563      -0.120000                    
       0.004643     -11.180795       1.091441      -0.120000                    