%nprocshared=4                                                                       
%mem=8GB                                                                             
#P pop=chelpg cam-b3lyp/gen scf=qc int=ultrafine charge td(nstates=10)               
                                                                                     
pNA CAM-B3LYP def2-TZVPD Single point - solvent def2-SV(P)                           
                                                                                     
0 1                                                                                  
 C       1.386341       0.000000       0.000000                                 
 C       0.000000       0.000000       0.000000                                 
 C      -0.712907       1.188984      -0.000000                                 
 C      -0.035635       2.384357       0.000131                                 
 C       1.365534       2.410943       0.000833                                 
 C       2.063239       1.195576       0.000133                                 
 H       1.918972      -0.938700       0.000854                                 
 H      -1.791888       1.163049       0.000837                                 
 H      -0.586620       3.315732      -0.002113                                 
 H       3.145392       1.202000      -0.002090                                 
 N      -0.713906      -1.260429       0.001744                                 
 O      -1.931758      -1.232720       0.002551                                 
 O      -0.063858      -2.290656       0.002518                                 
 N       2.037885       3.598040      -0.033161                                 
 H       1.540331       4.445798       0.174764                                 
 H       3.020819       3.607257       0.174736                                 
 C       4.230114      -2.736761      -0.505498                                 
 C       5.757899      -2.655614      -0.491247                                 
 C       6.334204      -2.454353      -1.894257                                 
 C       5.825417      -3.508430      -2.879672                                 
 C       4.297623      -3.589589      -2.893923                                 
 C       3.721321      -3.790854      -1.490922                                 
 H       3.833127      -1.766990      -0.798102                                 
 H       3.886526      -2.999555       0.492776                                 
 H       6.055583      -1.814272       0.130863                                 
 H       6.151595      -3.584317      -0.083625                                 
 H       6.038676      -1.470957      -2.253750                                 
 H       7.418397      -2.525491      -1.838210                                 
 H       6.222407      -4.478214      -2.587073                                 
 H       6.168996      -3.245647      -3.877945                                 
 H       3.903927      -2.660886      -3.301545                                 
 H       3.999952      -4.430932      -3.516039                                 
 H       4.016859      -4.774247      -1.131425                                 
 H       2.637134      -3.719710      -1.546957                                 
 C      -4.766286       4.018991       3.360333                                 
 C      -4.450601       3.968099       1.864119                                 
 C      -4.127462       2.548188       1.394580                                 
 C      -3.023671       1.903556       2.235450                                 
 C      -3.339356       1.954447       3.731663                                 
 C      -3.662504       3.374357       4.201200                                 
 H      -5.696352       3.483170       3.537877                                 
 H      -4.867704       5.060146       3.659073                                 
 H      -5.317295       4.327581       1.313475                                 
 H      -3.589275       4.603355       1.668689                                 
 H      -5.026748       1.941530       1.477339                                 
 H      -3.795470       2.591488       0.359368                                 
 H      -2.093615       2.439384       2.057899                                 
 H      -2.922253       0.862400       1.936710                                 
 H      -4.200692       1.319189       3.927090                                 
 H      -2.472663       1.594975       4.282304                                 
 H      -2.763210       3.981025       4.118440                                 
 H      -3.994498       3.331066       5.236408                                 
 C       5.549273       2.652886      -0.422861                                 
 C       5.949158       4.123361      -0.559570                                 
 C       6.884800       4.354751      -1.747852                                 
 C       8.103717       3.430856      -1.706193                                 
 C       7.703835       1.960387      -1.569496                                 
 C       6.768190       1.728992      -0.381203                                 
 H       4.934403       2.378856      -1.277549                                 
 H       4.987906       2.529640       0.500845                                 
 H       5.048795       4.716428      -0.705348                                 
 H       6.460258       4.430741       0.350359                                 
 H       6.334258       4.162791      -2.666389                                 
 H       7.229529       5.386414      -1.723175                                 
 H       8.718589       3.704887      -0.851506                                 
 H       8.665078       3.554097      -2.629910                                 
 H       7.192724       1.653000      -2.479416                                 
 H       8.604196       1.367315      -1.423706                                 
 H       7.318727       1.920956       0.537320                                 
 H       6.423462       0.697329      -0.405879                                 
 C       0.332038       5.578301       3.435064                                 
 C       1.651366       6.205151       2.979702                                 
 C       2.770267       5.990909       4.001029                                 
 C       2.366369       6.458967       5.400599                                 
 C       1.047033       5.832107       5.855961                                 
 C      -0.071869       6.046348       4.834635                                 
 H       0.447953       4.496637       3.450216                                 
 H      -0.449092       5.864315       2.733926                                 
 H       1.947372       5.746953       2.038426                                 
 H       1.500992       7.274587       2.847947                                 
 H       3.003736       4.929142       4.043387                                 
 H       3.643617       6.556881       3.683748                                 
 H       2.250442       7.540633       5.385453                                 
 H       3.147500       6.172944       6.101740                                 
 H       1.197403       4.762674       5.987726                                 
 H       0.751027       6.290305       6.797237                                 
 H      -0.305338       7.108115       4.792277                                 
 H      -0.945220       5.480385       5.151912                                 
 C      -3.363961       2.738089      -4.402016                                 
 C      -4.026611       3.403324      -3.194022                                 
 C      -3.439984       4.787313      -2.908539                                 
 C      -1.916143       4.748069      -2.776873                                 
 C      -1.253492       4.082824      -3.984864                                 
 C      -1.840119       2.698835      -4.270347                                 
 H      -3.621293       3.303704      -5.295056                                 
 H      -3.732356       1.717605      -4.482499                                 
 H      -5.090021       3.511504      -3.396547                                 
 H      -3.870915       2.772940      -2.321071                                 
 H      -3.701031       5.451684      -3.729558                                 
 H      -3.860101       5.157248      -1.975600                                 
 H      -1.658810       4.182445      -1.883830                                 
 H      -1.547747       5.768543      -2.696387                                 
 H      -1.409188       4.713209      -4.857815                                 
 H      -0.190082       3.974645      -3.782339                                 
 H      -1.579071       2.034465      -3.449327                                 
 H      -1.419992       2.328902      -5.203282                                 
 C      -0.270050      -5.433326       2.207892                                 
 C       0.603887      -5.593133       0.962276                                 
 C       0.462554      -6.982593       0.337422                                 
 C       0.707951      -8.097150       1.356512                                 
 C      -0.165989      -7.937337       2.602137                                 
 C      -0.024652      -6.547883       3.226982                                 
 H      -1.314772      -5.462433       1.905697                                 
 H      -0.038727      -4.478283       2.674743                                 
 H       0.301975      -4.849362       0.227942                                 
 H       1.643632      -5.443434       1.245465                                 
 H      -0.546868      -7.086294      -0.054929                                 
 H       1.190990      -7.078658      -0.464968                                 
 H       1.752674      -8.068050       1.658711                                 
 H       0.476626      -9.052197       0.889674                                 
 H      -1.205733      -8.087037       2.318948                                 
 H       0.135924      -8.681109       3.336472                                 
 H       0.984766      -6.444179       3.619342                                 
 H      -0.753091      -6.451822       4.029385                                 
                                                                                
      -2.136729      -2.175723       3.490057      -0.120000                    
      -3.430257      -2.720913       2.881382      -0.120000                    
      -4.650468      -1.895443       3.294583      -0.120000                    
      -4.751708      -1.742809       4.813625      -0.120000                    
      -3.458176      -1.197631       5.422296      -0.120000                    
      -2.237956      -2.023091       5.009094      -0.120000                    
      -1.932396      -1.199493       3.055415       0.060000                    
      -1.327509      -2.866613       3.263222       0.060000                    
      -3.342935      -2.693593       1.797300       0.060000                    
      -3.570933      -3.744238       3.222982       0.060000                    
      -4.567303      -0.905757       2.850477       0.060000                    
      -5.546922      -2.396256       2.934997       0.060000                    
      -4.956041      -2.719039       5.248268       0.060000                    
      -5.560915      -1.051920       5.040455       0.060000                    
      -3.317504      -0.174294       5.080700       0.060000                    
      -3.545498      -1.224952       6.506379       0.060000                    
      -2.321134      -3.012784       5.453210       0.060000                    
      -1.341511      -1.522289       5.368681       0.060000                    
       1.557041       1.327569      -5.270068      -0.120000                    
       2.731174       0.540577      -4.684482      -0.120000                    
       3.438716       1.312241      -3.568721      -0.120000                    
       3.855335       2.714644      -4.016675      -0.120000                    
       2.681202       3.501627      -4.602257      -0.120000                    
       1.973670       2.729964      -5.718015      -0.120000                    
       0.786264       1.420697      -4.507895       0.060000                    
       1.171856       0.787319      -6.132207       0.060000                    
       2.353696      -0.394138      -4.275369       0.060000                    
       3.447816       0.342715      -5.478808       0.060000                    
       2.758650       1.404580      -2.724565       0.060000                    
       4.330320       0.761477      -3.276479       0.060000                    
       4.626109       2.621510      -4.778835       0.060000                    
       4.240527       3.254889      -3.154519       0.060000                    
       1.964569       3.699499      -3.807931       0.060000                    
       3.058677       4.436345      -5.011361       0.060000                    
       2.653736       2.637625      -6.562171       0.060000                    
       1.082066       3.280737      -6.010261       0.060000                    
       2.129649       7.844140      -0.528052      -0.120000                    
       2.604592       8.856177       0.516504      -0.120000                    
       3.775699       9.698784       0.007043      -0.120000                    
       4.923186       8.830547      -0.512953      -0.120000                    
       4.448246       7.818508      -1.557519      -0.120000                    
       3.277136       6.975904      -1.048049      -0.120000                    
       1.696736       8.386486      -1.365975       0.060000                    
       1.383605       7.197264      -0.071357       0.060000                    
       1.777619       9.520433       0.758253       0.060000                    
       2.925831       8.315066       1.403989       0.060000                    
       3.422118      10.330504      -0.805043       0.060000                    
       4.146488      10.310411       0.826910       0.060000                    
       5.356109       8.288203       0.324973       0.060000                    
       5.669243       9.477422      -0.969654       0.060000                    
       4.127004       8.359621      -2.444994       0.060000                    
       5.275226       7.154256      -1.799255       0.060000                    
       3.630716       6.344183      -0.235963       0.060000                    
       2.906356       6.364277      -1.867912       0.060000                    
      -5.202582      -3.145821      -2.308863      -0.120000                    
      -5.612403      -3.092150      -0.835789      -0.120000                    
      -6.499792      -1.883450      -0.531473      -0.120000                    
      -5.862601      -0.572695      -0.997229      -0.120000                    
      -5.452785      -0.626380      -2.470311      -0.120000                    
      -4.565401      -1.835068      -2.774622      -0.120000                    
      -6.089698      -3.333988      -2.909952       0.060000                    
      -4.480668      -3.949118      -2.439896       0.060000                    
      -6.164572      -3.998174      -0.595208       0.060000                    
      -4.713220      -3.025357      -0.226931       0.060000                    
      -7.449412      -2.010795      -1.046833       0.060000                    
      -6.658084      -1.830279       0.543621       0.060000                    
      -4.975491      -0.384543      -0.396148       0.060000                    
      -6.584512       0.230589      -0.866201       0.060000                    
      -6.351963      -0.693168      -3.079158       0.060000                    
      -4.900607       0.279645      -2.710889       0.060000                    
      -3.615770      -1.707730      -2.259255       0.060000                    
      -4.407099      -1.888237      -3.849713       0.060000                    
       1.765734      -0.786554       5.108009      -0.120000                    
       1.923300      -2.007179       4.199104      -0.120000                    
       3.388938      -2.280164       3.855053      -0.120000                    
       4.082625      -1.043759       3.279599      -0.120000                    
       3.925060       0.176856       4.188508      -0.120000                    
       2.459428       0.449847       4.532570      -0.120000                    
       2.207674      -1.014288       6.075765       0.060000                    
       0.705338      -0.570201       5.218950       0.060000                    
       1.518720      -2.877157       4.712021       0.060000                    
       1.377362      -1.825857       3.275640       0.060000                    
       3.909058      -2.579935       4.762385       0.060000                    
       3.429839      -3.077389       3.115790       0.060000                    
       3.640692      -0.816028       2.311859       0.060000                    
       5.143026      -1.260107       3.168670       0.060000                    
       4.470994      -0.004452       5.111977       0.060000                    
       4.329636       1.046839       3.675599       0.060000                    
       1.939302       0.749614       3.625226       0.060000                    
       2.418526       1.247082       5.271830       0.060000                    
      -1.927252       7.699770      -0.536007      -0.120000                    
      -1.662306       7.043667       0.820530      -0.120000                    
      -2.798782       7.299338       1.812536      -0.120000                    
      -3.116130       8.789849       1.949057      -0.120000                    
      -3.381085       9.445951       0.592518      -0.120000                    
      -2.244610       9.190289      -0.399492      -0.120000                    
      -2.776787       7.204673      -1.001693       0.060000                    
      -1.039744       7.588599      -1.155270       0.060000                    
      -1.563523       5.970185       0.674188       0.060000                    
      -0.742775       7.454653       1.231878       0.060000                    
      -3.690265       6.784918       1.460068       0.060000                    
      -2.502529       6.916310       2.786835       0.060000                    
      -2.266604       9.284945       2.414740       0.060000                    
      -4.003651       8.901031       2.568322       0.060000                    
      -4.300620       9.034968       0.181177       0.060000                    
      -3.479872      10.519436       0.738868       0.060000                    
      -1.353126       9.704700      -0.047020       0.060000                    
      -2.540853       9.573310      -1.373785       0.060000                    
       0.104611      -3.057597      -5.181934      -0.120000                    
       1.084972      -4.197818      -5.464227      -0.120000                    
       0.380138      -5.553623      -5.541784      -0.120000                    
      -0.475246      -5.826781      -4.302957      -0.120000                    
      -1.455597      -4.686559      -4.020661      -0.120000                    
      -0.750773      -3.330746      -3.943111      -0.120000                    
      -0.553568      -2.944310      -6.040783       0.060000                    
       0.671886      -2.143861      -5.018125       0.060000                    
       1.576212      -4.006407      -6.415904       0.060000                    
       1.818300      -4.232644      -4.661312       0.060000                    
      -0.264696      -5.560633      -6.417985       0.060000                    
       1.134509      -6.333458      -5.622222       0.060000                    
       0.182933      -5.940068      -3.444108       0.060000                    
      -1.042521      -6.740508      -4.466770       0.060000                    
      -2.188935      -4.651735      -4.823579       0.060000                    
      -1.946837      -4.877969      -3.068984       0.060000                    
      -0.105929      -3.323743      -3.066902       0.060000                    
      -1.505131      -2.550922      -3.862675       0.060000                    
       8.378125       2.953228       3.475036      -0.120000                    
       6.868120       2.881224       3.710724      -0.120000                    
       6.468974       3.485703       5.058424      -0.120000                    
       7.259663       2.875115       6.217321      -0.120000                    
       8.769671       2.947125       5.981620      -0.120000                    
       9.168815       2.342650       4.633930      -0.120000                    
       8.664405       3.997695       3.371003       0.060000                    
       8.614653       2.404780       2.565693       0.060000                    
       6.365942       3.433787       2.919472       0.060000                    
       6.562989       1.837062       3.694017       0.060000                    
       6.663180       4.555819       5.030691       0.060000                    
       5.409936       3.298554       5.223413       0.060000                    
       6.973383       1.830648       6.321354       0.060000                    
       7.023126       3.423571       7.126657       0.060000                    
       9.074799       3.991291       5.998336       0.060000                    
       9.271849       2.394553       6.772875       0.060000                    
       8.974598       1.272532       4.661659       0.060000                    
      10.227852       2.529799       4.468940       0.060000                    
       9.962296       7.378188       2.903501      -0.120000                    
       9.752892       6.643991       1.577583      -0.120000                    
       8.358349       6.892205       0.999076      -0.120000                    
       7.253886       6.576394       2.009721      -0.120000                    
       7.463286       7.310591       3.335614      -0.120000                    
       8.857805       7.062371       3.914136      -0.120000                    
       9.962194       8.449128       2.711728       0.060000                    
      10.917087       7.070308       3.324409       0.060000                    
      10.493495       6.997730       0.863517       0.060000                    
       9.873358       5.576309       1.748556       0.060000                    
       8.280970       7.939684       0.715478       0.060000                    
       8.224926       6.254524       0.127703       0.060000                    
       7.253959       5.505457       2.201481       0.060000                    
       6.299068       6.884268       1.588804       0.060000                    
       7.342796       8.378267       3.164656       0.060000                    
       6.722670       6.956849       4.049698       0.060000                    
       8.935184       6.014901       4.197730       0.060000                    
       8.991228       7.700053       4.785510       0.060000                    
       1.646698       9.354132      -5.285120      -0.120000                    
       1.853778       7.908201      -4.829844      -0.120000                    
       0.541802       7.121312      -4.806236      -0.120000                    
      -0.537800       7.831162      -3.986702      -0.120000                    
      -0.744880       9.277093      -4.441978      -0.120000                    
       0.567096      10.063984      -4.465587      -0.120000                    
       1.343320       9.349635      -6.329922       0.060000                    
       2.584024       9.893616      -5.166684       0.060000                    
       2.538968       7.421044      -5.520275       0.060000                    
       2.272333       7.916416      -3.825634       0.060000                    
       0.185215       7.009143      -5.827960       0.060000                    
       0.729516       6.145658      -4.362883       0.060000                    
      -0.234419       7.835656      -2.941909       0.060000                    
      -1.475126       7.291679      -4.105139       0.060000                    
      -1.163434       9.268878      -5.446188       0.060000                    
      -1.430060       9.764251      -3.751545       0.060000                    
       0.923683      10.176151      -3.443863       0.060000                    
       0.379383      11.039636      -4.908940       0.060000                    
      -9.141955       4.791848      -2.258016      -0.120000                    
      -8.090158       3.846732      -2.842257      -0.120000                    
      -7.658787       2.777358      -1.836610      -0.120000                    
      -7.205956       3.388322      -0.508961      -0.120000                    
      -8.257757       4.333443       0.075288      -0.120000                    
      -8.689134       5.402810      -0.930370      -0.120000                    
     -10.057963       4.230051      -2.087718       0.060000                    
      -9.319366       5.596507      -2.968449       0.060000                    
      -8.512635       3.353101      -3.714907       0.060000                    
      -7.216761       4.430623      -3.124965       0.060000                    
      -8.503277       2.118443      -1.646058       0.060000                    
      -6.829782       2.215047      -2.261234       0.060000                    
      -6.289958       3.950118      -0.679263       0.060000                    
      -7.028546       2.583664       0.201471       0.060000                    
      -9.131151       3.749548       0.357988       0.060000                    
      -7.835275       4.827070       0.947930       0.060000                    
      -7.844643       6.061726      -1.120923       0.060000                    
      -9.518138       5.965121      -0.505746       0.060000                    
      -6.570029      -6.177599       5.422440      -0.120000                    
      -5.748693      -5.359077       4.424286      -0.120000                    
      -5.522133      -6.114197       3.112993      -0.120000                    
      -4.922180      -7.502133       3.346958      -0.120000                    
      -5.743516      -8.320655       4.345112      -0.120000                    
      -5.970075      -7.565545       5.656410      -0.120000                    
      -7.577493      -6.296149       5.029191       0.060000                    
      -6.595366      -5.645423       6.370971       0.060000                    
      -6.284069      -4.437343       4.206652       0.060000                    
      -4.781050      -5.137320       4.869422       0.060000                    
      -6.479065      -6.229620       2.608459       0.060000                    
      -4.836456      -5.538835       2.494501       0.060000                    
      -3.914706      -7.383582       3.740211       0.060000                    
      -4.896832      -8.034317       2.398435       0.060000                    
      -6.711158      -8.542412       3.899976       0.060000                    
      -5.208140      -9.242390       4.562747       0.060000                    
      -5.013144      -7.450112       6.160939       0.060000                    
      -6.655752      -8.140907       6.274901       0.060000                    
      -2.453768      -1.398152      -9.298680      -0.120000                    
      -3.976880      -1.541573      -9.277612      -0.120000                    
      -4.643782      -0.449584      -8.438680      -0.120000                    
      -4.055963      -0.370913      -7.028279      -0.120000                    
      -2.532842      -0.227491      -7.049345      -0.120000                    
      -1.865950      -1.319481      -7.888279      -0.120000                    
      -2.197793      -0.485880      -9.833398       0.060000                    
      -2.030015      -2.263339      -9.804184       0.060000                    
      -4.346965      -1.470597     -10.298219       0.060000                    
      -4.229060      -2.510226      -8.851277       0.060000                    
      -4.493390       0.508393      -8.931955       0.060000                    
      -5.706105      -0.671169      -8.360713       0.060000                    
      -4.311939      -1.283185      -6.493560       0.060000                    
      -4.479708       0.494276      -6.522771       0.060000                    
      -2.280662       0.741163      -7.475678       0.060000                    
      -2.162771      -0.298465      -6.028730       0.060000                    
      -2.016342      -2.277449      -7.395007       0.060000                    
      -0.803626      -1.097897      -7.966246       0.060000                    
      10.318121      -1.737362      -5.060454      -0.120000                    
       8.937470      -2.245688      -5.480295      -0.120000                    
       8.068873      -1.129460      -6.063893      -0.120000                    