%nprocshared=4                                                                       
%mem=8GB                                                                             
#P pop=chelpg cam-b3lyp/gen scf=qc int=ultrafine charge td(nstates=10)               
                                                                                     
pNA CAM-B3LYP def2-TZVPD Single point - solvent def2-SV(P)                           
                                                                                     
0 1                                                                                  
 C       1.386341       0.000000       0.000000                                 
 C       0.000000       0.000000       0.000000                                 
 C      -0.712907       1.188984      -0.000000                                 
 C      -0.035635       2.384357       0.000131                                 
 C       1.365534       2.410943       0.000833                                 
 C       2.063239       1.195576       0.000133                                 
 H       1.918972      -0.938700       0.000854                                 
 H      -1.791888       1.163049       0.000837                                 
 H      -0.586620       3.315732      -0.002113                                 
 H       3.145392       1.202000      -0.002090                                 
 N      -0.713906      -1.260429       0.001744                                 
 O      -1.931758      -1.232720       0.002551                                 
 O      -0.063858      -2.290656       0.002518                                 
 N       2.037885       3.598040      -0.033161                                 
 H       1.540331       4.445798       0.174764                                 
 H       3.020819       3.607257       0.174736                                 
 C       4.716381      -0.209965      -4.662453                                 
 C       5.773440      -1.285388      -4.403813                                 
 C       5.152957      -2.588407      -3.895731                                 
 C       4.257691      -2.359735      -2.676225                                 
 C       3.200629      -1.284318      -2.934856                                 
 C       3.821114       0.018707      -3.442946                                 
 H       4.093761      -0.527792      -5.496110                                 
 H       5.221323       0.723206      -4.902902                                 
 H       6.296857      -1.489686      -5.335442                                 
 H       6.469078      -0.915813      -3.653362                                 
 H       4.551428      -3.020879      -4.692452                                 
 H       5.954271      -3.269115      -3.615982                                 
 H       4.880308      -2.041914      -1.842560                                 
 H       3.752742      -3.292912      -2.435781                                 
 H       2.504992      -1.653893      -3.685308                                 
 H       2.677212      -1.080019      -2.003228                                 
 H       4.422634       0.451169      -2.646223                                 
 H       3.019791       0.699404      -3.722693                                 
 C       6.047759      -3.666033       2.264111                                 
 C       4.927451      -4.685444       2.480003                                 
 C       3.733267      -4.428328       1.558695                                 
 C       3.226472      -2.988618       1.665328                                 
 C       4.346781      -1.969200       1.449428                                 
 C       5.540963      -2.226323       2.370743                                 
 H       6.466384      -3.814574       1.270940                                 
 H       6.811529      -3.822852       3.022841                                 
 H       5.317736      -5.679858       2.273955                                 
 H       4.590767      -4.618664       3.512396                                 
 H       4.040333      -4.613637       0.531558                                 
 H       2.926582      -5.102494       1.838823                                 
 H       2.807848      -2.840071       2.658491                                 
 H       2.462702      -2.831799       0.906597                                 
 H       4.683465      -2.035981       0.417035                                 
 H       3.956495      -0.974793       1.655483                                 
 H       5.233899      -2.041008       3.397872                                 
 H       6.347651      -1.552151       2.090608                                 
 C      -5.784855       3.407079      -1.509144                                 
 C      -5.597421       1.980723      -2.029956                                 
 C      -4.143412       1.517115      -1.920654                                 
 C      -3.176700       2.500800      -2.583127                                 
 C      -3.364128       3.927155      -2.062301                                 
 C      -4.818143       4.390764      -2.171617                                 
 H      -5.604741       3.411948      -0.436172                                 
 H      -6.803572       3.723986      -1.722194                                 
 H      -6.221058       1.310973      -1.441597                                 
 H      -5.894135       1.950809      -3.076269                                 
 H      -3.884228       1.430849      -0.867546                                 
 H      -4.048458       0.551521      -2.412932                                 
 H      -3.356813       2.495931      -3.656099                                 
 H      -2.157982       2.183892      -2.370076                                 
 H      -3.067413       3.957075      -1.015996                                 
 H      -2.740498       4.596900      -2.650666                                 
 H      -5.077322       4.477030      -3.224711                                 
 H      -4.913099       5.356351      -1.679331                                 
 C       7.774358       2.909866       3.129099                                 
 C       6.619850       2.024677       2.655316                                 
 C       5.680530       2.768507       1.703788                                 
 C       5.184097       4.086291       2.302134                                 
 C       6.338599       4.971475       2.775911                                 
 C       7.277919       4.227646       3.727439                                 
 H       8.413147       3.133632       2.277313                                 
 H       8.335246       2.371863       3.890365                                 
 H       7.033037       1.164032       2.133657                                 
 H       6.050220       1.701623       3.524122                                 
 H       6.218390       2.985394       0.783315                                 
 H       4.820693       2.134433       1.497952                                 
 H       4.545308       3.862525       3.153920                                 
 H       4.623202       4.624301       1.540871                                 
 H       6.908235       5.294534       1.907110                                 
 H       5.925411       5.832121       3.297570                                 
 H       6.740066       4.010764       4.647918                                 
 H       8.137753       4.861714       3.933283                                 
 C      -2.057908       4.732386       2.564194                                 
 C      -1.707894       5.864717       1.596623                                 
 C      -2.352626       7.189907       2.007986                                 
 C      -3.863336       7.054414       2.209140                                 
 C      -4.213346       5.922081       3.176725                                 
 C      -3.568612       4.596897       2.765354                                 
 H      -1.596480       4.942502       3.526810                                 
 H      -1.676008       3.797941       2.158592                                 
 H      -0.627482       5.992046       1.586647                                 
 H      -2.065507       5.597316       0.604516                                 
 H      -1.905354       7.518468       2.943748                                 
 H      -2.170555       7.922974       1.224903                                 
 H      -4.324759       6.844296       1.246538                                 
 H      -4.245239       7.988853       2.614751                                 
 H      -3.855734       6.189483       4.168833                                 
 H      -5.293765       5.794759       3.186704                                 
 H      -4.015886       4.268331       1.829600                                 
 H      -3.750692       3.863831       3.548448                                 
 C       1.457607       7.503797      -2.308087                                 
 C       0.871649       7.730118      -0.912967                                 
 C       1.669072       8.765680      -0.117537                                 
 C       3.159602       8.424347      -0.064594                                 
 C       3.745559       8.198026      -1.459714                                 
 C       2.948140       7.162469      -2.255152                                 
 H       1.329825       8.413692      -2.890695                                 
 H       0.928207       6.677516      -2.777740                                 
 H      -0.151156       8.085381      -1.018901                                 
 H       0.889245       6.786781      -0.371236                                 
 H       1.551393       9.736381      -0.594531                                 
 H       1.282966       8.795637       0.899203                                 
 H       3.287393       7.514452       0.518003                                 
 H       3.689008       9.250622       0.405057                                 
 H       3.727971       9.141357      -2.001447                                 
 H       4.768373       7.842757      -1.353782                                 
 H       3.065816       6.191764      -1.778149                                 
 H       3.334250       7.132501      -3.271886                                 
                                                                                
      -6.785786       0.651408       3.701898      -0.120000                    
      -6.192287       1.808457       2.895711      -0.120000                    
      -5.286016       1.314448       1.766261      -0.120000                    
      -4.206300       0.357030       2.274736      -0.120000                    
      -4.799798      -0.800020       3.080923      -0.120000                    
      -5.706055      -0.306012       4.210376      -0.120000                    
      -7.469197       0.096652       3.062465       0.060000                    
      -7.318259       1.060996       4.557684       0.060000                    
      -7.007204       2.383510       2.461288       0.060000                    
      -5.604532       2.433083       3.565070       0.060000                    
      -5.897157       0.791715       1.033533       0.060000                    
      -4.800890       2.174048       1.308635       0.060000                    
      -3.522889       0.911785       2.914169       0.060000                    
      -3.673820      -0.052553       1.418955       0.060000                    
      -5.387547      -1.424641       2.411569       0.060000                    
      -3.984876      -1.375067       3.515351       0.060000                    
      -5.094922       0.216727       4.943106       0.060000                    
      -6.191195      -1.165610       4.667999       0.060000                    
       0.901712      -1.158073       4.149183      -0.120000                    
      -0.418791      -0.433076       4.416570      -0.120000                    
      -0.442739       0.963261       3.791532      -0.120000                    
       0.766401       1.800780       4.212864      -0.120000                    
       2.086904       1.075783       3.945478      -0.120000                    
       2.110859      -0.320549       4.570522      -0.120000                    
       0.975752      -1.363927       3.083438       0.060000                    
       0.908688      -2.087597       4.714401       0.060000                    
      -1.229850      -1.019073       3.989512       0.060000                    
      -0.549933      -0.334823       5.492125       0.060000                    
      -0.433557       0.859634       2.708572       0.060000                    
      -1.348139       1.473064       4.114131       0.060000                    
       0.692353       2.006640       5.278613       0.060000                    
       0.759431       2.730309       3.647653       0.060000                    
       2.218043       0.977524       2.869931       0.060000                    
       2.897963       1.661780       4.372536       0.060000                    
       2.101670      -0.216928       5.653475       0.060000                    
       3.016249      -0.830351       4.247932       0.060000                    
       0.859931      -5.484494      -1.227522      -0.120000                    
       1.486351      -6.708221      -0.555977      -0.120000                    
       2.407868      -7.474861      -1.506804      -0.120000                    
       1.706280      -7.836724      -2.817462      -0.120000                    
       1.079854      -6.613002      -3.489014      -0.120000                    
       0.158341      -5.846375      -2.538182      -0.120000                    
       1.646924      -4.764493      -1.441728       0.060000                    
       0.127568      -5.052318      -0.548976       0.060000                    
       2.069507      -6.374779       0.299801       0.060000                    
       0.688772      -7.373871      -0.232820       0.060000                    
       3.269437      -6.850792      -1.734421       0.060000                    
       2.725804      -8.393195      -1.017618       0.060000                    
       0.919293      -8.556736      -2.603252       0.060000                    
       2.438644      -8.268900      -3.496009       0.060000                    
       1.877439      -5.947347      -3.812165       0.060000                    
       0.496702      -6.946445      -4.344779       0.060000                    
      -0.703232      -6.470431      -2.310569       0.060000                    
      -0.159602      -4.928033      -3.027365       0.060000                    
      -0.344026      -4.581737       2.608527      -0.120000                    
       0.149702      -5.753193       3.459910      -0.120000                    
      -0.433228      -7.087948       2.991285      -0.120000                    
      -1.960148      -7.047252       2.902884      -0.120000                    
      -2.453884      -5.875801       2.051496      -0.120000                    
      -1.870944      -4.541035       2.520118      -0.120000                    
       0.059680      -4.687681       1.603807       0.060000                    
       0.002981      -3.654145       3.058760       0.060000                    
       1.234128      -5.802842       3.387575       0.060000                    
      -0.152376      -5.584919       4.491458       0.060000                    
      -0.033776      -7.314689       2.005051       0.060000                    
      -0.146591      -7.860875       3.701297       0.060000                    
      -2.363861      -6.941312       3.907598       0.060000                    
      -2.307160      -7.974842       2.452637       0.060000                    
      -2.151805      -6.044075       1.019948       0.060000                    
      -3.538300      -5.826140       2.123828       0.060000                    
      -2.270396      -4.314294       3.506351       0.060000                    
      -2.157589      -3.768119       1.810109       0.060000                    
       7.381657       5.409515      -1.284038      -0.120000                    
       6.312028       4.547036      -1.957058      -0.120000                    
       6.780344       3.103940      -2.154798      -0.120000                    
       8.120550       3.031664      -2.889356      -0.120000                    
       9.190179       3.894143      -2.216336      -0.120000                    
       8.721869       5.337244      -2.018589      -0.120000                    
       7.523962       5.054935      -0.265367       0.060000                    
       7.042783       6.443305      -1.279858       0.060000                    
       5.423918       4.541336      -1.328715       0.060000                    
       6.082616       4.974614      -2.930828       0.060000                    
       6.893612       2.638217      -1.178110       0.060000                    
       6.033331       2.573334      -2.741457       0.060000                    
       7.978245       3.386244      -3.908027       0.060000                    
       8.459424       1.997874      -2.893535       0.060000                    
       9.419591       3.466565      -1.242565       0.060000                    
      10.078289       3.899843      -2.844678       0.060000                    
       8.608595       5.802962      -2.995283       0.060000                    
       9.468875       5.867846      -1.431936       0.060000                    
      -5.977044      -3.385250      -2.439400      -0.120000                    
      -5.990651      -4.383026      -3.599209      -0.120000                    
      -4.973511      -5.508350      -3.399067      -0.120000                    
      -3.568475      -4.968893      -3.123644      -0.120000                    
      -3.554866      -3.971111      -1.963842      -0.120000                    
      -4.571998      -2.845793      -2.163987      -0.120000                    
      -6.338215      -3.887474      -1.544446       0.060000                    
      -6.626871      -2.549988      -2.691670       0.060000                    
      -6.984124      -4.820822      -3.669607       0.060000                    
      -5.746131      -3.852591      -4.517112       0.060000                    
      -5.286384      -6.112893      -2.550379       0.060000                    
      -4.942543      -6.113708      -4.302558       0.060000                    
      -3.207295      -4.466670      -4.018609       0.060000                    
      -2.918639      -5.804155      -2.871384       0.060000                    
      -3.799387      -4.501547      -1.045939       0.060000                    
      -2.561393      -3.533316      -1.893445       0.060000                    
      -4.259133      -2.241245      -3.012672       0.060000                    
      -4.602967      -2.240436      -1.260496       0.060000                    
       1.045565       5.727434       4.766574      -0.120000                    
       1.100952       6.899679       5.748237      -0.120000                    
       1.502242       8.205583       5.059323      -0.120000                    
       2.802956       8.059614       4.266990      -0.120000                    
       2.747570       6.887370       3.285328      -0.120000                    
       2.346287       5.581471       3.974247      -0.120000                    
       0.229747       5.897810       4.067227       0.060000                    
       0.875965       4.811275       5.328269       0.060000                    
       0.115863       7.028879       6.191471       0.060000                    
       1.834795       6.673440       6.518897       0.060000                    
       0.708432       8.495401       4.374137       0.060000                    
       1.642428       8.970974       5.819767       0.060000                    
       3.618778       7.889246       4.966331       0.060000                    
       2.972564       8.975779       3.705302       0.060000                    
       2.013727       7.113608       2.514667       0.060000                    
       3.732666       6.758174       2.842099       0.060000                    
       3.140091       5.291647       4.659427       0.060000                    
       2.206095       4.816075       3.213798       0.060000                    
      -0.831435      -0.472317      -5.514292      -0.120000                    
      -1.904742      -1.530569      -5.251544      -0.120000                    
      -3.172599      -1.276293      -6.069410      -0.120000                    
      -3.707220       0.143595      -5.871738      -0.120000                    
      -2.633908       1.201835      -6.134480      -0.120000                    
      -1.366055       0.947571      -5.316619      -0.120000                    
      -0.486722      -0.574192      -6.541173       0.060000                    
      -0.007720      -0.633195      -4.822036       0.060000                    
      -1.505580      -2.505522      -5.523045       0.060000                    
      -2.162627      -1.509340      -4.194797       0.060000                    
      -2.940722      -1.416951      -7.122999       0.060000                    
      -3.937396      -1.982796      -5.753777       0.060000                    
      -4.051919       0.245469      -4.844855       0.060000                    
      -4.530934       0.304474      -6.563994       0.060000                    
      -2.376029       1.180613      -7.191225       0.060000                    
      -3.033070       2.176788      -5.862980       0.060000                    
      -1.597926       1.088223      -4.263033       0.060000                    
      -0.601252       1.654068      -5.632256       0.060000                    
      -3.142983      10.598745      -2.621310      -0.120000                    
      -3.676780      10.172226      -3.990253      -0.120000                    
      -4.550316       8.919323      -3.899785      -0.120000                    
      -3.836050       7.773151      -3.180680      -0.120000                    
      -3.302244       8.199670      -1.811747      -0.120000                    
      -2.428708       9.452586      -1.902208      -0.120000                    
      -3.980113      10.925837      -2.008178       0.060000                    
      -2.437013      11.414438      -2.762129       0.060000                    
      -4.274737      10.984185      -4.398664       0.060000                    
      -2.831999       9.960711      -4.642379       0.060000                    
      -5.455256       9.165484      -3.348333       0.060000                    
      -4.799265       8.595541      -4.908221       0.060000                    
      -2.998913       7.446065      -3.793807       0.060000                    
      -4.542012       6.957464      -3.039856       0.060000                    
      -4.147025       8.411197      -1.159614       0.060000                    
      -2.704290       7.387717      -1.403321       0.060000                    
      -1.523768       9.206424      -2.453659       0.060000                    
      -2.179751       9.776360      -0.893775       0.060000                    
      -1.110572       5.285373      -5.211019      -0.120000                    
      -2.177469       5.757007      -6.201074      -0.120000                    
      -1.979491       5.147457      -7.590426      -0.120000                    
      -0.563117       5.378139      -8.121179      -0.120000                    
       0.503789       4.906505      -7.131135      -0.120000                    
       0.305809       5.516048      -5.741775      -0.120000                    
      -1.246521       4.220469      -5.034475       0.060000                    
      -1.228476       5.839877      -4.282495       0.060000                    
      -3.154740       5.459532      -5.826964       0.060000                    
      -2.119259       6.840155      -6.285138       0.060000                    
      -2.157371       4.075932      -7.528547       0.060000                    
      -2.687138       5.608437      -8.276318       0.060000                    
      -0.427161       6.443047      -8.297717       0.060000                    
      -0.445204       4.823634      -9.049713       0.060000                    
       0.445578       3.823351      -7.047063       0.060000                    
       1.481066       5.203984      -7.505238       0.060000                    
       0.483682       6.587580      -5.803651       0.060000                    
       1.013449       5.055075      -5.055880       0.060000                    
      -8.296296      -6.880140       2.483132      -0.120000                    
      -7.595910      -6.897136       1.122954      -0.120000                    
      -6.212485      -6.246281       1.182521      -0.120000                    
      -6.266049      -4.839600       1.782027      -0.120000                    
      -6.966436      -4.822605       3.142205      -0.120000                    
      -8.349847      -5.473461       3.082641      -0.120000                    
      -7.748495      -7.527773       3.164400       0.060000                    
      -9.314113      -7.242282       2.354674       0.060000                    
      -7.480341      -7.930912       0.804276       0.060000                    
      -8.207783      -6.348605       0.409900       0.060000                    
      -5.564266      -6.863384       1.801069       0.060000                    
      -5.816405      -6.178434       0.171459       0.060000                    
      -6.813851      -4.191967       1.100759       0.060000                    
      -5.248232      -4.477458       1.910485       0.060000                    
      -6.354564      -5.371136       3.855259       0.060000                    
      -7.081998      -3.788824       3.460889       0.060000                    
      -8.998074      -4.856362       2.464087       0.060000                    
      -8.745934      -5.541313       4.093697       0.060000                    
       5.423360       5.698411      -5.633729      -0.120000                    
       5.052862       7.174276      -5.474127      -0.120000                    
       5.684287       8.044607      -6.562647      -0.120000                    
       7.197861       7.840280      -6.653861      -0.120000                    
       7.568360       6.364416      -6.813462      -0.120000                    
       6.936937       5.494102      -5.724942      -0.120000                    
       4.966107       5.321853      -6.546297       0.060000                    
       5.050032       5.150938      -4.770917       0.060000                    
       3.970939       7.269877      -5.536591       0.060000                    
       5.406803       7.518753      -4.504737       0.060000                    
       5.239572       7.781146      -7.519952       0.060000                    
       5.487871       9.089134      -6.330062       0.060000                    
       7.655108       8.216845      -5.741289       0.060000                    
       7.571183       8.387760      -7.516669       0.060000                    
       7.214422       6.019945      -7.782859       0.060000                    
       8.650276       6.268821      -6.750996       0.060000                    
       7.381650       5.757545      -4.767636       0.060000                    
       7.133354       4.449564      -5.957535       0.060000                    
       9.791402      -1.281186       0.076801      -0.120000                    
       9.163326      -2.663841       0.263007      -0.120000                    
       9.515508      -3.612523      -0.884587      -0.120000                    
       9.179801      -3.009772      -2.250220      -0.120000                    
       9.807867      -1.627109      -2.436423      -0.120000                    
       9.455695      -0.678435      -1.288831      -0.120000                    
      10.872110      -1.376309       0.158679       0.060000                    
       9.411073      -0.619265       0.851970       0.060000                    
       9.532475      -3.091066       1.192989       0.060000                    
       8.081831      -2.552041       0.302215       0.060000                    
      10.582891      -3.820050      -0.849015       0.060000                    
       8.947946      -4.532579      -0.761671       0.060000                    
       8.099098      -2.914644      -2.332092       0.060000                    
       9.560123      -3.671688      -3.025386       0.060000                    
      10.889364      -1.738911      -2.475631       0.060000                    
       9.438720      -1.199886      -3.366405       0.060000                    
       8.388315      -0.470909      -1.324391       0.060000                    
      10.023250       0.241628      -1.411745       0.060000                    
       5.100929       3.100991       6.958997      -0.120000                    
       5.965634       2.032530       7.630998      -0.120000                    
       5.180606       0.747770       7.903286      -0.120000                    