%nprocshared=4                                                                       
%mem=8GB                                                                             
#P pop=chelpg cam-b3lyp/gen scf=qc int=ultrafine charge td(nstates=10)               
                                                                                     
pNA CAM-B3LYP def2-TZVPD Single point - solvent def2-SV(P)                           
                                                                                     
0 1                                                                                  
 C       1.386341       0.000000       0.000000                                 
 C       0.000000       0.000000       0.000000                                 
 C      -0.712907       1.188984      -0.000000                                 
 C      -0.035635       2.384357       0.000131                                 
 C       1.365534       2.410943       0.000833                                 
 C       2.063239       1.195576       0.000133                                 
 H       1.918972      -0.938700       0.000854                                 
 H      -1.791888       1.163049       0.000837                                 
 H      -0.586620       3.315732      -0.002113                                 
 H       3.145392       1.202000      -0.002090                                 
 N      -0.713906      -1.260429       0.001744                                 
 O      -1.931758      -1.232720       0.002551                                 
 O      -0.063858      -2.290656       0.002518                                 
 N       2.037885       3.598040      -0.033161                                 
 H       1.540331       4.445798       0.174764                                 
 H       3.020819       3.607257       0.174736                                 
 C       0.507810       7.117103      -2.639958                                 
 C       1.915457       7.002730      -3.228348                                 
 C       2.864428       6.241665      -2.300303                                 
 C       2.879608       6.830163      -0.888049                                 
 C       1.471953       6.944529      -0.299663                                 
 C       0.522989       7.705601      -1.227704                                 
 H       0.066774       6.123432      -2.597781                                 
 H      -0.085211       7.766239      -3.280715                                 
 H       1.854366       6.470656      -4.175356                                 
 H       2.310048       8.004728      -3.383235                                 
 H       2.537005       5.205796      -2.241816                                 
 H       3.870526       6.296766      -2.710730                                 
 H       3.320642       7.823833      -0.930226                                 
 H       3.472627       6.181026      -0.247292                                 
 H       1.077369       5.942536      -0.144772                                 
 H       1.533051       7.476609       0.647349                                 
 H       0.850405       8.741463      -1.286194                                 
 H      -0.483116       7.650492      -0.817281                                 
 C       4.171709      -1.129795      -4.086505                                 
 C       3.371115      -1.281308      -2.791502                                 
 C       4.274101      -1.564983      -1.589346                                 
 C       5.197633      -2.759811      -1.835309                                 
 C       5.998227      -2.608298      -3.130312                                 
 C       5.095241      -2.324623      -4.332469                                 
 H       4.778870      -0.229713      -4.016634                                 
 H       3.475334      -1.051574      -4.918650                                 
 H       2.828349      -0.356480      -2.608069                                 
 H       2.675989      -2.110193      -2.907431                                 
 H       4.886147      -0.685843      -1.399121                                 
 H       3.647059      -1.781951      -0.727123                                 
 H       4.590472      -3.659894      -1.905180                                 
 H       5.894008      -2.838032      -1.003164                                 
 H       6.693353      -1.779413      -3.014383                                 
 H       6.540992      -3.533125      -3.313745                                 
 H       4.483195      -3.203763      -4.522693                                 
 H       5.722276      -2.107650      -5.194687                                 
 C       4.642453       5.616529       3.497866                                 
 C       3.237431       5.458758       2.913158                                 
 C       2.263872       4.841804       3.919407                                 
 C       2.794103       3.528885       4.499119                                 
 C       4.199126       3.686651       5.083835                                 
 C       5.172684       4.303612       4.077578                                 
 H       4.606919       6.358352       4.292871                                 
 H       5.313703       5.943343       2.706530                                 
 H       2.866936       6.441245       2.628483                                 
 H       3.294310       4.809878       2.041723                                 
 H       2.113698       5.546327       4.734690                                 
 H       1.321123       4.643026       3.413994                                 
 H       2.829637       2.787063       3.704113                                 
 H       2.122854       3.202073       5.290455                                 
 H       4.142247       4.335531       5.955270                                 
 H       4.569613       2.704164       5.368498                                 
 H       5.322852       3.599082       3.262291                                 
 H       6.115433       4.502388       4.582990                                 
 C      -6.953490       0.743530       0.008539                                 
 C      -5.791762       0.137339      -0.781264                                 
 C      -5.127646      -1.017271      -0.028391                                 
 C      -4.709557      -0.613615       1.386953                                 
 C      -5.871285      -0.007419       2.176747                                 
 C      -6.535394       1.147193       1.423887                                 
 H      -7.749271       0.004953       0.078430                                 
 H      -7.305716       1.629236      -0.515840                                 
 H      -6.173738      -0.238929      -1.727861                                 
 H      -5.048090       0.912088      -0.955616                                 
 H      -5.835415      -1.840714       0.039674                                 
 H      -4.240967      -1.326293      -0.577934                                 
 H      -3.913768       0.124968       1.317065                                 
 H      -4.357330      -1.499321       1.911332                                 
 H      -6.614955      -0.782173       2.351107                                 
 H      -5.489316       0.368849       3.123357                                 
 H      -5.827631       1.970628       1.355818                                 
 H      -7.422080       1.456208       1.973425                                 
 C       4.398858      -6.704776       1.276449                                 
 C       4.935277      -5.343140       0.830217                                 
 C       3.942742      -4.214423       1.116276                                 
 C       2.559423      -4.505268       0.530728                                 
 C       2.023006      -5.866910       0.976968                                 
 C       3.015540      -6.995627       0.690908                                 
 H       4.325155      -6.710728       2.361900                                 
 H       5.087830      -7.476916       0.940761                                 
 H       5.858180      -5.139468       1.369083                                 
 H       5.123424      -5.377546      -0.240802                                 
 H       3.847133      -4.100331       2.193992                                 
 H       4.322379      -3.296736       0.671935                                 
 H       2.633126      -4.499317      -0.554723                                 
 H       1.870451      -3.733128       0.866415                                 
 H       1.834858      -5.832504       2.047987                                 
 H       1.100102      -6.070582       0.438102                                 
 H       3.111148      -7.109713      -0.386816                                 
 H       2.635909      -7.913301       1.135245                                 
 C       1.681495      -2.671900       3.525662                                 
 C       0.199475      -2.425105       3.814732                                 
 C      -0.174822      -0.948782       3.668646                                 
 C       0.730856      -0.042289       4.504752                                 
 C       2.212884      -0.289095       4.215686                                 
 C       2.587181      -1.765418       4.361771                                 
 H       1.868049      -2.473550       2.472318                                 
 H       1.913850      -3.708290       3.761401                                 
 H      -0.393402      -3.005345       3.110902                                 
 H      -0.012671      -2.738249       4.834824                                 
 H      -0.077783      -0.667389       2.622209                                 
 H      -1.202163      -0.815994       4.001387                                 
 H       0.544302      -0.240639       5.558096                                 
 H       0.498502       0.994096       4.269021                                 
 H       2.425030       0.024049       3.195593                                 
 H       2.805754       0.291150       4.919520                                 
 H       2.490135      -2.046806       5.408213                                 
 H       3.614522      -1.898194       4.029038                                 
                                                                                
       5.563874       2.692113      -2.237206      -0.120000                    
       6.987146       2.186802      -1.992472      -0.120000                    
       7.991502       3.335447      -1.878922      -0.120000                    
       7.917835       4.282148      -3.078673      -0.120000                    
       6.494562       4.787459      -3.323407      -0.120000                    
       5.490214       3.638810      -3.436962      -0.120000                    
       5.227584       3.226735      -1.351353       0.060000                    
       4.919478       1.836892      -2.429139       0.060000                    
       7.000150       1.620524      -1.063630       0.060000                    
       7.278613       1.551285      -2.826028       0.060000                    
       7.772239       3.901028      -0.975776       0.060000                    
       8.994317       2.916598      -1.827669       0.060000                    
       8.254124       3.747533      -3.964534       0.060000                    
       8.562237       5.137371      -2.886753       0.060000                    
       6.203102       5.422971      -2.489855       0.060000                    
       6.481557       5.353743      -4.252257       0.060000                    
       5.709476       3.073233      -4.340116       0.060000                    
       4.487397       4.057663      -3.488222       0.060000                    
      -3.823302      -3.038466      -4.611634      -0.120000                    
      -4.980262      -2.337589      -5.326565      -0.120000                    
      -4.752131      -0.829195      -5.443542      -0.120000                    
      -4.444002      -0.189165      -4.088415      -0.120000                    
      -3.287041      -0.890048      -3.373476      -0.120000                    
      -3.515179      -2.398437      -3.256494      -0.120000                    
      -2.936027      -2.971310      -5.237630       0.060000                    
      -4.093736      -4.079865      -4.450800       0.060000                    
      -5.073689      -2.753709      -6.327423       0.060000                    
      -5.893427      -2.508187      -4.760223       0.060000                    
      -3.909656      -0.655626      -6.109672       0.060000                    
      -5.652889      -0.371643      -5.847322       0.060000                    
      -5.331278      -0.256309      -3.462410       0.060000                    
      -4.173567       0.852229      -4.249240       0.060000                    
      -2.373884      -0.719438      -3.939821       0.060000                    
      -3.193616      -0.473910      -2.372617       0.060000                    
      -4.357648      -2.572006      -2.590376       0.060000                    
      -2.614408      -2.855982      -2.852722       0.060000                    
      -0.475960       2.244555      -3.670796      -0.120000                    
       0.791897       1.579674      -4.210578      -0.120000                    
       1.513486       2.464108      -5.229468      -0.120000                    
       0.581992       2.919927      -6.354423      -0.120000                    
      -0.685866       3.584809      -5.814642      -0.120000                    
      -1.407461       2.700380      -4.795746      -0.120000                    
      -0.189338       3.114046      -3.082986       0.060000                    
      -1.007053       1.527067      -3.048923       0.060000                    
       1.465389       1.387911      -3.377995       0.060000                    
       0.515375       0.645648      -4.695129       0.060000                    
       1.896025       3.344106      -4.716772       0.060000                    
       2.332374       1.895455      -5.665133       0.060000                    
       0.295371       2.050431      -6.942225       0.060000                    
       1.113085       3.637416      -6.976297       0.060000                    
      -0.409342       4.518829      -5.330081       0.060000                    
      -1.359363       3.776559      -6.647220       0.060000                    
      -1.789999       1.820365      -5.308443       0.060000                    
      -2.226341       3.269022      -4.360077       0.060000                    
       6.376486       0.050841       1.724903      -0.120000                    
       6.749187      -1.278436       2.384497      -0.120000                    
       7.600082      -1.076535       3.639996      -0.120000                    
       8.829652      -0.208233       3.365707      -0.120000                    
       8.456960       1.121032       2.706116      -0.120000                    
       7.606057       0.919136       1.450622      -0.120000                    
       5.708761       0.594003       2.390329       0.060000                    
       5.879940      -0.157246       0.779549       0.060000                    
       5.834260      -1.796383       2.664178       0.060000                    
       7.316730      -1.873128       1.671816       0.060000                    
       6.991290      -0.587763       4.397693       0.060000                    
       7.933697      -2.049706       3.994018       0.060000                    
       9.497392      -0.751399       2.700288       0.060000                    
       9.326205      -0.000140       4.311064       0.060000                    
       7.889422       1.715737       3.418792       0.060000                    
       9.371892       1.638993       2.426431       0.060000                    
       8.214856       0.430359       0.692920       0.060000                    
       7.272449       1.892303       1.096596       0.060000                    
       0.011204      -4.718706      -6.804709      -0.120000                    
       0.021547      -3.293135      -7.360139      -0.120000                    
       0.814250      -2.336068      -6.467560      -0.120000                    
       0.338816      -2.381373      -5.013994      -0.120000                    
       0.328474      -3.806944      -4.458564      -0.120000                    
      -0.464228      -4.764017      -5.351134      -0.120000                    
       1.022201      -5.117784      -6.852386       0.060000                    
      -0.661774      -5.322663      -7.409593       0.060000                    
       0.479318      -3.307767      -8.346963       0.060000                    
      -1.004721      -2.937961      -7.425461       0.060000                    
       1.863939      -2.620295      -6.499052       0.060000                    
       0.686132      -1.323269      -6.843855       0.060000                    
      -0.672188      -1.982291      -4.966312       0.060000                    
       1.011788      -1.777423      -4.409114       0.060000                    
       1.354735      -4.162126      -4.393246       0.060000                    
      -0.129305      -3.792307      -3.471736       0.060000                    
      -1.513924      -4.479796      -5.319647       0.060000                    
      -0.336119      -5.776805      -4.974844       0.060000                    
      -1.732639       7.016778       3.689159      -0.120000                    
      -2.083094       6.152938       4.902377      -0.120000                    
      -3.024904       5.004382       4.535241      -0.120000                    
      -4.274404       5.499047       3.803776      -0.120000                    
      -3.923949       6.362887       2.590559      -0.120000                    
      -2.982140       7.511461       2.957695      -0.120000                    
      -1.138300       6.421935       2.998814       0.060000                    
      -1.164416       7.879870       4.029366       0.060000                    
      -1.164636       5.733470       5.307501       0.060000                    
      -2.571883       6.779291       5.645638       0.060000                    
      -2.492835       4.312548       3.885724       0.060000                    
      -3.333402       4.501991       5.449641       0.060000                    
      -4.868744       6.093896       4.494113       0.060000                    
      -4.842622       4.635968       3.463565       0.060000                    
      -3.435161       5.736552       1.847297       0.060000                    
      -4.842409       6.782361       2.185426       0.060000                    
      -3.514216       8.203283       3.607216       0.060000                    
      -2.673642       8.013840       2.043286       0.060000                    
      -4.827131      -7.203301      -1.170004      -0.120000                    
      -4.149325      -6.172287      -0.265321      -0.120000                    
      -5.153393      -5.180805       0.326172      -0.120000                    
      -6.010543      -4.519238      -0.754829      -0.120000                    
      -6.688356      -5.550253      -1.659523      -0.120000                    
      -5.684281      -6.541735      -2.251006      -0.120000                    
      -5.466619      -7.835896      -0.558002       0.060000                    
      -4.057328      -7.800698      -1.653934       0.060000                    
      -3.656372      -6.696385       0.550698       0.060000                    
      -3.420204      -5.619328      -0.853740       0.060000                    
      -5.808570      -5.715899       1.010288       0.060000                    
      -4.604882      -4.405871       0.857538       0.060000                    
      -5.371054      -3.886644      -1.366831       0.060000                    
      -6.780338      -3.921847      -0.270904       0.060000                    
      -7.417462      -6.103216      -1.071097       0.060000                    
      -7.181303      -5.026154      -2.475531       0.060000                    
      -5.029104      -6.006641      -2.935121       0.060000                    
      -6.232785      -7.316673      -2.782375       0.060000                    
       3.300834      10.760169       1.613892      -0.120000                    
       2.681828      10.291746       2.932357      -0.120000                    
       1.225014       9.857367       2.759125      -0.120000                    
       0.380871      10.939018       2.082061      -0.120000                    
       0.999877      11.407442       0.763597      -0.120000                    
       2.456682      11.841833       0.936825      -0.120000                    
       3.376234       9.907179       0.942775       0.060000                    
       4.288543      11.167522       1.818847       0.060000                    
       3.255140       9.445244       3.304291       0.060000                    
       2.717235      11.113562       3.644442       0.060000                    
       1.200426       8.960875       2.143240       0.060000                    
       0.804311       9.652106       3.741268       0.060000                    
       0.305463      11.792003       2.753175       0.060000                    
      -0.606845      10.531659       1.877104       0.060000                    
       0.964463      10.585631       0.051516       0.060000                    
       0.426565      12.253945       0.391664       0.060000                    
       2.481279      12.738314       1.552714       0.060000                    
       2.877387      12.047088      -0.045310       0.060000                    
       8.260980       7.425407       1.873257      -0.120000                    
       7.961425       5.971640       1.502156      -0.120000                    
       9.240177       5.164212       1.270111      -0.120000                    
      10.165915       5.835994       0.253870      -0.120000                    
      10.465469       7.289767       0.624963      -0.120000                    
       9.186709       8.097200       0.857012      -0.120000                    
       8.743775       7.443019       2.848088       0.060000                    
       7.323303       7.976063       1.906530       0.060000                    
       7.403511       5.513002       2.315754       0.060000                    
       7.372471       5.960571       0.587471       0.060000                    
       9.770077       5.072824       2.215854       0.060000                    
       8.966797       4.180512       0.894183       0.060000                    
       9.683119       5.818399      -0.720962       0.060000                    
      11.103594       5.285338       0.220597       0.060000                    
      11.054424       7.300842       1.539664       0.060000                    
      11.023383       7.748405      -0.188636       0.060000                    
       8.656811       8.188583      -0.088723       0.060000                    
       9.460106       9.080895       1.232947       0.060000                    
       0.371846      -7.751389      -2.376640      -0.120000                    
       1.300449      -8.953302      -2.192314      -0.120000                    
       0.613462     -10.270040      -2.560109      -0.120000                    
      -0.712651     -10.451391      -1.818782      -0.120000                    
      -1.641247      -9.249487      -2.003105      -0.120000                    
      -0.954259      -7.932750      -1.635310      -0.120000                    
       0.163467      -7.632532      -3.437820       0.060000                    
       0.868941      -6.865133      -1.988087       0.060000                    
       2.169081      -8.823246      -2.834272       0.060000                    
       1.605783      -9.000047      -1.149127       0.060000                    
       0.416778     -10.272555      -3.630115       0.060000                    
       1.274670     -11.092728      -2.296100       0.060000                    
      -0.504271     -10.570253      -0.757594       0.060000                    
      -1.209747     -11.337646      -2.207335       0.060000                    
      -1.946588      -9.202732      -3.046295       0.060000                    
      -2.509886      -9.379539      -1.361142       0.060000                    
      -0.757575      -7.930235      -0.565304       0.060000                    
      -1.615473      -7.110069      -1.899323       0.060000                    
       4.921836      -7.622692      -5.720734      -0.120000                    
       3.400816      -7.463011      -5.763751      -0.120000                    
       2.942461      -6.160360      -5.104962      -0.120000                    
       3.494568      -6.010367      -3.685919      -0.120000                    
       5.015593      -6.170035      -3.642906      -0.120000                    
       5.473943      -7.472694      -4.301700      -0.120000                    
       5.369792      -6.857112      -6.350774       0.060000                    
       5.178083      -8.613208      -6.090601       0.060000                    
       3.080986      -7.457994      -6.803590       0.060000                    
       2.948366      -8.298533      -5.233795       0.060000                    
       3.294961      -5.324335      -5.705317       0.060000                    
       1.855542      -6.158692      -5.057063       0.060000                    
       3.046618      -6.775935      -3.055883       0.060000                    
       3.238327      -5.019840      -3.316057       0.060000                    
       5.468045      -5.334520      -4.172854       0.060000                    
       5.335425      -6.175060      -2.603060       0.060000                    
       5.121458      -8.308723      -3.701337       0.060000                    
       6.560863      -7.474367      -4.349591       0.060000                    
       1.976649      -7.790604       6.012157      -0.120000                    
       1.433938      -6.558117       6.738377      -0.120000                    
      -0.032588      -6.289769       6.394427      -0.120000                    
      -0.262213      -6.212184       4.883718      -0.120000                    
       0.280477      -7.444661       4.157520      -0.120000                    
       1.747002      -7.713021       4.501436      -0.120000                    
       1.468190      -8.672445       6.396234       0.060000                    
       3.046259      -7.860807       6.198074       0.060000                    
       1.515039      -6.722619       7.810691       0.060000                    
       2.024088      -5.692945       6.443609       0.060000                    
      -0.637850      -7.099228       6.796978       0.060000                    
      -0.326225      -5.341566       6.839853       0.060000                    
       0.246216      -5.330334       4.499626       0.060000                    
      -1.331852      -6.141979       4.697795       0.060000                    
      -0.309674      -8.309846       4.452254       0.060000                    
       0.199368      -7.280167       3.085177       0.060000                    
       2.352264      -6.903550       4.098893       0.060000                    
       2.040638      -8.661213       4.056018       0.060000                    
      -5.596337      -4.854552       3.968724      -0.120000                    
      -6.505847      -3.786475       4.579349      -0.120000                    
      -5.708192      -2.610018       5.145647      -0.120000                    
      -4.626144      -3.069478       6.125006      -0.120000                    
      -3.716629      -4.137556       5.514368      -0.120000                    
      -4.514289      -5.314013       4.948083      -0.120000                    
      -5.113315      -4.437530       3.087575       0.060000                    
      -6.204614      -5.713843       3.694518       0.060000                    
      -7.172855      -3.413634       3.804923       0.060000                    
      -7.079423      -4.238024       5.386075       0.060000                    
      -5.230599      -2.084824       4.321199       0.060000                    
      -6.392502      -1.946263       5.669973       0.060000                    
      -5.109166      -3.486501       7.006155       0.060000                    
      -4.017861      -2.210187       6.399199       0.060000                    
      -3.143058      -3.686006       4.707654       0.060000                    
      -3.049620      -4.510396       6.288794       0.060000                    
      -4.991882      -5.839207       5.772531       0.060000                    
      -3.829979      -5.977768       4.423758       0.060000                    
      -6.645329       3.799014      -4.774663      -0.120000                    
      -7.180309       3.143499      -3.499922      -0.120000                    
      -7.888250       1.818582      -3.790521      -0.120000                    