%nprocshared=4                                                                       
%mem=8GB                                                                             
#P pop=chelpg cam-b3lyp/gen scf=qc int=ultrafine charge td(nstates=10)               
                                                                                     
pNA CAM-B3LYP def2-TZVPD Single point - solvent def2-SV(P)                           
                                                                                     
0 1                                                                                  
 C       1.386341       0.000000       0.000000                                 
 C       0.000000       0.000000       0.000000                                 
 C      -0.712907       1.188984      -0.000000                                 
 C      -0.035635       2.384357       0.000131                                 
 C       1.365534       2.410943       0.000833                                 
 C       2.063239       1.195576       0.000133                                 
 H       1.918972      -0.938700       0.000854                                 
 H      -1.791888       1.163049       0.000837                                 
 H      -0.586620       3.315732      -0.002113                                 
 H       3.145392       1.202000      -0.002090                                 
 N      -0.713906      -1.260429       0.001744                                 
 O      -1.931758      -1.232720       0.002551                                 
 O      -0.063858      -2.290656       0.002518                                 
 N       2.037885       3.598040      -0.033161                                 
 H       1.540331       4.445798       0.174764                                 
 H       3.020819       3.607257       0.174736                                 
 C      -0.181935       7.304592       4.130934                                 
 C       0.492090       7.061247       2.779147                                 
 C      -0.305470       6.088727       1.907887                                 
 C      -0.609892       4.780324       2.640263                                 
 C      -1.283913       5.023676       3.992054                                 
 C      -0.486363       5.996199       4.863316                                 
 H      -1.117054       7.834576       3.962776                                 
 H       0.484572       7.902153       4.749233                                 
 H       0.573233       8.011159       2.255051                                 
 H       1.480325       6.641113       2.953982                                 
 H      -1.246514       6.560166       1.632580                                 
 H       0.277291       5.861378       1.017704                                 
 H       0.325218       4.250342       2.808421                                 
 H      -1.276396       4.182769       2.021968                                 
 H      -2.272151       5.443801       3.817213                                 
 H      -1.365069       4.073759       4.516146                                 
 H       0.454681       5.524760       5.138622                                 
 H      -1.069127       6.223541       5.753493                                 
 C       4.979942      -2.597714       2.113762                                 
 C       5.595631      -3.961945       1.796410                                 
 C       4.850622      -4.678498       0.668368                                 
 C       3.349172      -4.777886       0.945481                                 
 C       2.733487      -3.413647       1.262838                                 
 C       3.478491      -2.697102       2.390875                                 
 H       5.133209      -1.940127       1.260673                                 
 H       5.470184      -2.191739       2.996041                                 
 H       6.629469      -3.814342       1.491463                                 
 H       5.550566      -4.580235       2.690481                                 
 H       4.997746      -4.121223      -0.254364                                 
 H       5.253280      -5.684416       0.569888                                 
 H       3.195905      -5.435473       1.798570                                 
 H       2.858930      -5.183861       0.063202                                 
 H       2.778548      -2.795364       0.368762                                 
 H       1.699645      -3.561258       1.567780                                 
 H       3.331368      -3.254376       3.313608                                 
 H       3.075833      -1.691184       2.489355                                 
 C       8.339404       1.334683      -2.571912                                 
 C       6.984986       0.895616      -3.132011                                 
 C       5.822533       1.366561      -2.255680                                 
 C       6.000742       0.949780      -0.794328                                 
 C       7.355160       1.388847      -0.234230                                 
 C       8.517613       0.917902      -1.110561                                 
 H       8.406829       2.418738      -2.634948                                 
 H       9.126679       0.872594      -3.163690                                 
 H       6.865455       1.320962      -4.126168                                 
 H       6.964977      -0.191040      -3.181557                                 
 H       5.768651       2.452135      -2.303530                                 
 H       4.902067       0.926089      -2.633057                                 
 H       5.933317      -0.134274      -0.731293                                 
 H       5.213463       1.411861      -0.202556                                 
 H       7.375170       2.475503      -0.184683                                 
 H       7.474692       0.963507       0.759919                                 
 H       8.571495      -0.167666      -1.062719                                 
 H       9.438076       1.358372      -0.733197                                 
 C       2.622369      -3.304676      -5.583878                                 
 C       3.755431      -2.540729      -4.895808                                 
 C       3.596492      -2.527841      -3.374095                                 
 C       2.218897      -2.018159      -2.945850                                 
 C       1.085837      -2.782104      -3.633905                                 
 C       1.244764      -2.794991      -5.155631                                 
 H       2.701487      -4.356932      -5.319017                                 
 H       2.720862      -3.177982      -6.659886                                 
 H       4.699364      -3.021986      -5.142721                                 
 H       3.750315      -1.513642      -5.254580                                 
 H       3.722630      -3.542643      -3.002747                                 
 H       4.356134      -1.874014      -2.950765                                 
 H       2.139778      -0.965903      -3.210710                                 
 H       2.120406      -2.144845      -1.869835                                 
 H       1.090951      -3.809193      -3.275146                                 
 H       0.141904      -2.300841      -3.387001                                 
 H       1.118639      -1.780184      -5.526975                                 
 H       0.485131      -3.448821      -5.578962                                 
 C       5.891078       2.760061       3.040155                                 
 C       5.700836       4.139433       3.674255                                 
 C       4.927736       4.062551       4.992388                                 
 C       3.601537       3.315611       4.836481                                 
 C       3.791785       1.936252       4.202379                                 
 C       4.564880       2.013121       2.884248                                 
 H       6.548382       2.172145       3.677336                                 
 H       6.335688       2.888314       2.055561                                 
 H       6.680464       4.570063       3.870368                                 
 H       5.144627       4.767015       2.981104                                 
 H       5.538646       3.537466       5.723627                                 
 H       4.718779       5.074702       5.332373                                 
 H       2.944247       3.903532       4.199305                                 
 H       3.156938       3.187354       5.821074                                 
 H       4.347994       1.308670       4.895530                                 
 H       2.812153       1.505615       4.006260                                 
 H       3.953973       2.538213       2.153015                                 
 H       4.773840       1.000977       2.544270                                 
 C      -4.190496      -6.067013      -1.086142                                 
 C      -2.674292      -6.260646      -1.153403                                 
 C      -1.921978      -4.931956      -1.055165                                 
 C      -2.416260      -3.915640      -2.086533                                 
 C      -3.932462      -3.722000      -2.019268                                 
 C      -4.684788      -5.050694      -2.117508                                 
 H      -4.451574      -5.709004      -0.092491                                 
 H      -4.672081      -7.022825      -1.281463                                 
 H      -2.367784      -6.895796      -0.325039                                 
 H      -2.425665      -6.731581      -2.102098                                 
 H      -2.073682      -4.519285      -0.060034                                 
 H      -0.864201      -5.117685      -1.229407                                 
 H      -2.155189      -4.273639      -3.080178                                 
 H      -1.934685      -2.959825      -1.891211                                 
 H      -4.181092      -3.251077      -1.070569                                 
 H      -4.238982      -3.086854      -2.847636                                 
 H      -4.533084      -5.463365      -3.112640                                 
 H      -5.742562      -4.864957      -1.943261                                 
                                                                                
       0.731602       9.997224      -1.675095      -0.120000                    
       1.296551       8.681022      -1.137320      -0.120000                    
       0.816089       7.476729      -1.949630      -0.120000                    
      -0.708629       7.438777      -2.071334      -0.120000                    
      -1.273577       8.754984      -2.609117      -0.120000                    
      -0.793116       9.959272      -1.796799      -0.120000                    
       1.154580      10.180293      -2.660614       0.060000                    
       1.005989      10.798285      -0.991995       0.060000                    
       2.382589       8.722739      -1.186741       0.060000                    
       0.970156       8.557805      -0.106793       0.060000                    
       1.243176       7.538288      -2.948342       0.060000                    
       1.147915       6.567489      -1.452731       0.060000                    
      -1.131604       7.255716      -1.085810       0.060000                    
      -0.983016       6.637715      -2.754434       0.060000                    
      -0.947179       8.878203      -3.639631       0.060000                    
      -2.359616       8.713261      -2.559688       0.060000                    
      -1.220203       9.897713      -0.798087       0.060000                    
      -1.124941      10.868512      -2.293698       0.060000                    
      -5.705968       1.100256      -1.367683      -0.120000                    
      -6.357698       0.176169      -2.398289      -0.120000                    
      -7.502512      -0.639367      -1.793895      -0.120000                    
      -7.065759      -1.398034      -0.539045      -0.120000                    
      -6.414028      -0.473948       0.491561      -0.120000                    
      -5.269217       0.341587      -0.112846      -0.120000                    
      -6.426463       1.862908      -1.079718       0.060000                    
      -4.829307       1.560398      -1.818498       0.060000                    
      -6.754038       0.784014      -3.208849       0.060000                    
      -5.603120      -0.510659      -2.775841       0.060000                    
      -8.309582       0.039437      -1.526523       0.060000                    
      -7.844821      -1.359598      -2.534008       0.060000                    
      -6.345276      -2.160691      -0.827013       0.060000                    
      -7.942431      -1.858181      -0.088233       0.060000                    
      -7.168618       0.212881       0.869101       0.060000                    
      -6.017696      -1.081783       1.302114       0.060000                    
      -4.462156      -0.337214      -0.380217       0.060000                    
      -4.926915       1.061823       0.627282       0.060000                    
       1.926986       4.110631      -3.290285      -0.120000                    
       2.318328       2.635766      -3.402132      -0.120000                    
       3.360481       2.400853      -4.497483      -0.120000                    
       2.918676       2.980165      -5.842912      -0.120000                    
       2.527324       4.455039      -5.731072      -0.120000                    
       1.485172       4.689952      -4.635721      -0.120000                    
       2.788195       4.672968      -2.935615       0.060000                    
       1.102479       4.199152      -2.586079       0.060000                    
       2.735568       2.313615      -2.450456       0.060000                    
       1.428219       2.056866      -3.639262       0.060000                    
       4.290761       2.880720      -4.200957       0.060000                    
       3.508616       1.329114      -4.612267       0.060000                    
       2.057470       2.417836      -6.197577       0.060000                    
       3.743182       2.891650      -6.547127       0.060000                    
       3.417434       5.033938      -5.493942       0.060000                    
       2.110084       4.777189      -6.682748       0.060000                    
       0.554901       4.210082      -4.932249       0.060000                    
       1.337036       5.761691      -4.520936       0.060000                    
      -2.057256      -1.053880      -5.941850      -0.120000                    
      -1.472950       0.351453      -6.098492      -0.120000                    
      -0.902689       0.884976      -4.782759      -0.120000                    
      -1.922474       0.811987      -3.644476      -0.120000                    
      -2.506780      -0.593347      -3.487834      -0.120000                    
      -3.077041      -1.126870      -4.803566      -0.120000                    
      -1.245763      -1.745794      -5.726524       0.060000                    
      -2.552315      -1.330089      -6.870371       0.060000                    
      -0.672910       0.315284      -6.834846       0.060000                    
      -2.262782       1.021256      -6.432024       0.060000                    
      -0.035544       0.286509      -4.511642       0.060000                    
      -0.614261       1.924369      -4.924968       0.060000                    
      -2.733967       1.503900      -3.859802       0.060000                    
      -1.427414       1.088195      -2.715955       0.060000                    
      -1.716948      -1.263149      -3.154302       0.060000                    
      -3.306819      -0.557178      -2.751480       0.060000                    
      -3.944186      -0.528403      -5.074684       0.060000                    
      -3.365469      -2.166263      -4.661358       0.060000                    
      -0.655135       0.945452       5.975849      -0.120000                    
      -0.596081      -0.480548       5.424566      -0.120000                    
      -0.979067      -0.539076       3.944406      -0.120000                    
      -2.331640       0.123719       3.675580      -0.120000                    
      -2.390707       1.549715       4.226859      -0.120000                    
      -2.007718       1.608250       5.707024      -0.120000                    
       0.122807       1.536030       5.496582       0.060000                    
      -0.493164       0.909538       7.051085       0.060000                    
       0.419414      -0.854617       5.535951       0.060000                    
      -1.290403      -1.100230       5.988087       0.060000                    
      -0.216730      -0.020092       3.367229       0.060000                    
      -1.036839      -1.582401       3.641226       0.060000                    
      -3.109583      -0.466864       4.154855       0.060000                    
      -2.493612       0.159633       2.600344       0.060000                    
      -1.696385       2.169397       3.663338       0.060000                    
      -3.406199       1.923791       4.115479       0.060000                    
      -2.770058       1.089253       6.284204       0.060000                    
      -1.949945       2.651575       6.010204       0.060000                    
       5.467626       7.644495      -0.507878      -0.120000                    
       5.786720       7.261814       0.938733      -0.120000                    
       7.238664       6.808695       1.104727      -0.120000                    
       7.607520       5.694934       0.122593      -0.120000                    
       7.288426       6.077614      -1.324019      -0.120000                    
       5.836486       6.530741      -1.490007      -0.120000                    
       6.034998       8.536542      -0.764795       0.060000                    
       4.400458       7.839790      -0.588560       0.060000                    
       5.618647       8.129539       1.573088       0.060000                    
       5.131679       6.445225       1.234929       0.060000                    
       7.891371       7.660465       0.925579       0.060000                    
       7.373096       6.436940       2.118346       0.060000                    
       7.040150       4.802895       0.379515       0.060000                    
       8.674687       5.499638       0.203275       0.060000                    
       7.943467       6.894208      -1.620222       0.060000                    
       7.456500       5.209894      -1.958381       0.060000                    
       5.183775       5.678968      -1.310873       0.060000                    
       5.702050       6.902489      -2.503631       0.060000                    
      -5.868536      -2.908366       4.076029      -0.120000                    
      -5.045805      -3.122861       5.348028      -0.120000                    
      -3.561102      -3.330411       5.042079      -0.120000                    
      -3.336999      -4.446377       4.019612      -0.120000                    
      -4.159734      -4.231890       2.747608      -0.120000                    
      -5.644427      -4.024343       3.053555      -0.120000                    
      -5.574779      -1.961740       3.627440       0.060000                    
      -6.922945      -2.888253       4.343194       0.060000                    
      -5.150719      -2.245044       5.982138       0.060000                    
      -5.421852      -4.005759       5.860615       0.060000                    
      -3.156171      -2.404093       4.640087       0.060000                    
      -3.049870      -3.596575       5.964872       0.060000                    
      -3.630751      -5.393014       4.468194       0.060000                    
      -2.282590      -4.466486       3.752439       0.060000                    
      -3.783677      -3.348995       2.235019       0.060000                    
      -4.054817      -5.109699       2.113503       0.060000                    
      -6.049355      -4.950654       3.455553       0.060000                    
      -6.155668      -3.758170       2.130755       0.060000                    
      -5.248757       5.448346       1.305685      -0.120000                    
      -4.877382       6.476167       0.234893      -0.120000                    
      -4.461735       7.815820       0.846086      -0.120000                    
      -5.514667       8.354431       1.816769      -0.120000                    
      -5.886039       7.326618       2.887566      -0.120000                    
      -6.301688       5.986959       2.276381      -0.120000                    
      -4.353539       5.194709       1.869524       0.060000                    
      -5.648736       4.563778       0.814698       0.060000                    
      -4.045037       6.086451      -0.347313       0.060000                    
      -5.741908       6.639329      -0.405126       0.060000                    
      -3.528586       7.676282       1.387709       0.060000                    
      -4.327642       8.537563       0.043090       0.060000                    
      -6.409883       8.608070       1.252943       0.060000                    
      -5.114686       9.239001       2.307769       0.060000                    
      -5.021513       7.163451       3.527593       0.060000                    
      -6.718384       7.716334       3.469771       0.060000                    
      -7.234836       6.126497       1.734758       0.060000                    
      -6.435783       5.265208       3.079372       0.060000                    
       0.059740      -5.196593       8.018891      -0.120000                    
       0.263965      -3.961708       7.138958      -0.120000                    
       0.576934      -4.336616       5.688949      -0.120000                    
       1.751816      -5.311718       5.589712      -0.120000                    
       1.547583      -6.546588       6.469631      -0.120000                    
       1.234626      -6.171707       7.919634      -0.120000                    
      -0.844661      -5.707940       7.695960       0.060000                    
      -0.038007      -4.874146       9.053319       0.060000                    
      -0.647664      -3.368298       7.155577       0.060000                    
       1.096706      -3.385352       7.536509       0.060000                    
      -0.302530      -4.806448       5.253738       0.060000                    
       0.830070      -3.430520       5.142502       0.060000                    
       2.656220      -4.800384       5.912624       0.060000                    
       1.849567      -5.634177       4.555264       0.060000                    
       0.714854      -7.122966       6.072066       0.060000                    
       2.459237      -7.140015       6.453002       0.060000                    
       2.114090      -5.701876       8.354846       0.060000                    
       0.981493      -7.077796       8.466085       0.060000                    
       2.661195      -7.581123      -4.711900      -0.120000                    
       4.180913      -7.665571      -4.867442      -0.120000                    
       4.823004      -8.516096      -3.769552      -0.120000                    
       4.415141      -8.049537      -2.370628      -0.120000                    
       2.895425      -7.965083      -2.215095      -0.120000                    
       2.253333      -7.114564      -3.312976      -0.120000                    
       2.238457      -8.568337      -4.886134       0.060000                    
       2.275949      -6.871589      -5.441075       0.060000                    
       4.407269      -8.114613      -5.832158       0.060000                    
       4.592392      -6.659876      -4.813456       0.060000                    
       4.504483      -9.548346      -3.898398       0.060000                    
       5.904662      -8.440984      -3.859490       0.060000                    
       4.837881      -7.062317      -2.196402       0.060000                    
       4.800398      -8.759069      -1.641463       0.060000                    
       2.483944      -8.970778      -2.269081       0.060000                    
       2.669068      -7.516048      -1.250371       0.060000                    
       2.571854      -6.082315      -3.184130       0.060000                    
       1.171672      -7.189678      -3.223052       0.060000                    
       9.795485      -1.673213       2.238054      -0.120000                    
       8.772396      -0.659410       2.754093      -0.120000                    
       8.720926      -0.624632       4.282861      -0.120000                    
       8.501176      -2.015679       4.880892      -0.120000                    
       9.524263      -3.029490       4.364848      -0.120000                    
       9.575732      -3.064268       2.836079      -0.120000                    
      10.791752      -1.331158       2.510339       0.060000                    
       9.702443      -1.741228       1.156259       0.060000                    
       9.049482       0.328716       2.392980       0.060000                    
       7.789207      -0.936130       2.379363       0.060000                    
       9.665361      -0.231967       4.653684       0.060000                    
       7.898715       0.019033       4.588463       0.060000                    
       7.504909      -2.357734       4.608607       0.060000                    
       8.594215      -1.947666       5.962673       0.060000                    
      10.507451      -2.752770       4.739577       0.060000                    
       9.247176      -4.017615       4.725960       0.060000                    
       8.631300      -3.456924       2.465262       0.060000                    
      10.397946      -3.707926       2.530483       0.060000                    
      -7.096264       3.029227      -5.415052      -0.120000                    
      -7.410928       2.002913      -6.505249      -0.120000                    
      -6.284513       0.981066      -6.672659      -0.120000                    
      -4.928200       1.653906      -6.893256      -0.120000                    
      -4.613524       2.680225      -5.803056      -0.120000                    
      -5.739948       3.702070      -5.635635      -0.120000                    
      -7.079851       2.520902      -4.453271       0.060000                    
      -7.869519       3.794464      -5.424261       0.060000                    
      -8.322020       1.474503      -6.232796       0.060000                    
      -7.546934       2.528072      -7.448335       0.060000                    
      -6.229024       0.374010      -5.771553       0.060000                    
      -6.507141       0.356482      -7.535259       0.060000                    
      -4.944613       2.162226      -7.855029       0.060000                    
      -4.154942       0.888678      -6.884043       0.060000                    
      -4.477528       2.155070      -4.859968       0.060000                    
      -3.702436       3.208622      -6.075506       0.060000                    
      -5.795431       4.309121      -6.536757       0.060000                    
      -5.517324       4.326646      -4.773041       0.060000                    
      -3.468924      -9.921989       2.786455      -0.120000                    
      -2.868756      -8.744067       2.016248      -0.120000                    
      -1.438310      -8.436088       2.463432      -0.120000                    
      -1.340704      -8.240122       3.977728      -0.120000                    
      -1.940871      -9.418044       4.747934      -0.120000                    
      -3.371317      -9.726025       4.300753      -0.120000                    
      -2.926657     -10.825937       2.517215       0.060000                    
      -4.518218     -10.016456       2.515032       0.060000                    
      -2.856165      -8.991506       0.956901       0.060000                    
      -3.484632      -7.864390       2.190997       0.060000                    
      -0.798207      -9.268408       2.178603       0.060000                    
      -1.109787      -7.522295       1.972739       0.060000                    
      -1.882968      -7.336167       4.246974       0.060000                    
      -0.291419      -8.145652       4.249153       0.060000                    
      -1.325001     -10.297710       4.573193       0.060000                    
      -1.953468      -9.170595       5.807289       0.060000                    
      -4.011430      -8.893701       4.585582       0.060000                    
      -3.699849     -10.639813       4.791446       0.060000                    
      -8.291244       1.897214       7.126561      -0.120000                    
      -8.730551       0.988816       5.976461      -0.120000                    
      -7.539152       0.322996       5.284894      -0.120000                    