%nprocshared=4                                                                       
%mem=8GB                                                                             
#P pop=chelpg cam-b3lyp/gen scf=qc int=ultrafine charge td(nstates=10)               
                                                                                     
pNA CAM-B3LYP def2-TZVPD Single point - solvent def2-SV(P)                           
                                                                                     
0 1                                                                                  
 C       1.386341       0.000000       0.000000                                 
 C       0.000000       0.000000       0.000000                                 
 C      -0.712907       1.188984      -0.000000                                 
 C      -0.035635       2.384357       0.000131                                 
 C       1.365534       2.410943       0.000833                                 
 C       2.063239       1.195576       0.000133                                 
 H       1.918972      -0.938700       0.000854                                 
 H      -1.791888       1.163049       0.000837                                 
 H      -0.586620       3.315732      -0.002113                                 
 H       3.145392       1.202000      -0.002090                                 
 N      -0.713906      -1.260429       0.001744                                 
 O      -1.931758      -1.232720       0.002551                                 
 O      -0.063858      -2.290656       0.002518                                 
 N       2.037885       3.598040      -0.033161                                 
 H       1.540331       4.445798       0.174764                                 
 H       3.020819       3.607257       0.174736                                 
 C      -4.507143       2.396497       4.559727                                 
 C      -4.797999       1.396574       3.438841                                 
 C      -3.668653       1.346988       2.407759                                 
 C      -3.328419       2.735649       1.862923                                 
 C      -3.037559       3.735580       2.983820                                 
 C      -4.166909       3.785168       4.014894                                 
 H      -3.660711       2.033243       5.138754                                 
 H      -5.389377       2.477333       5.191139                                 
 H      -4.912757       0.407243       3.876582                                 
 H      -5.715220       1.695317       2.935715                                 
 H      -2.781847       0.933104       2.883045                                 
 H      -3.982036       0.715604       1.578986                                 
 H      -4.174847       3.098902       1.283906                                 
 H      -2.446186       2.654814       1.231511                                 
 H      -2.120343       3.436829       3.486935                                 
 H      -2.922805       4.724913       2.546071                                 
 H      -5.053716       4.199043       3.539606                                 
 H      -3.853518       4.416542       4.843660                                 
 C       8.256643       5.551445       2.917367                                 
 C       7.704441       6.365588       1.745546                                 
 C       6.237849       6.036391       1.459693                                 
 C       6.013703       4.534785       1.270311                                 
 C       6.565910       3.720639       2.442139                                 
 C       8.032506       4.049829       2.727977                                 
 H       7.751496       5.866221       3.828084                                 
 H       9.325891       5.736207       2.995825                                 
 H       7.782254       7.422948       1.989522                                 
 H       8.291030       6.138997       0.857716                                 
 H       5.635392       6.374585       2.300124                                 
 H       5.937311       6.550307       0.549039                                 
 H       6.518851       4.220008       0.359593                                 
 H       4.944457       4.350023       1.191851                                 
 H       5.979317       3.947233       3.329961                                 
 H       6.488096       2.663280       2.198164                                 
 H       8.634954       3.711646       1.887553                                 
 H       8.333035       3.535923       3.638638                                 
 C       3.953529      -0.212336       3.696955                                 
 C       4.436686      -0.504969       5.118844                                 
 C       5.040613      -1.905367       5.242070                                 
 C       4.089776      -2.987204       4.725814                                 
 C       3.606624      -2.694573       3.303933                                 
 C       3.002696      -1.294176       3.180708                                 
 H       4.818325      -0.166463       3.038409                                 
 H       3.428552       0.740555       3.697317                                 
 H       5.197011       0.226194       5.385135                                 
 H       3.588584      -0.431274       5.796323                                 
 H       5.957808      -1.941058       4.658035                                 
 H       5.253295      -2.101160       6.290955                                 
 H       3.224980      -3.033077       5.384359                                 
 H       4.614753      -3.940096       4.725451                                 
 H       4.454711      -2.768267       2.626450                                 
 H       2.846285      -3.425735       3.037639                                 
 H       2.085497      -1.258483       3.764734                                 
 H       2.790001      -1.098381       2.131818                                 
 C      -3.542241       7.333275      -0.825101                                 
 C      -3.297595       6.641570      -2.167710                                 
 C      -2.187071       5.592892      -2.078134                                 
 C      -0.899115       6.170762      -1.488055                                 
 C      -1.143753       6.862459      -0.145453                                 
 C      -2.254277       7.911136      -0.235028                                 
 H      -3.947839       6.603971      -0.127049                                 
 H      -4.250313       8.145306      -0.976269                                 
 H      -4.216747       6.148972      -2.477656                                 
 H      -3.007525       7.393544      -2.898481                                 
 H      -2.527356       4.779722      -1.440514                                 
 H      -1.975701       5.223974      -3.079624                                 
 H      -0.493517       6.900057      -2.186109                                 
 H      -0.191035       5.358723      -1.336893                                 
 H      -1.433832       6.110484       0.585323                                 
 H      -0.224600       7.355057       0.164493                                 
 H      -1.913991       8.724305      -0.872649                                 
 H      -2.465656       8.280053       0.766466                                 
 C       4.075508       3.957525      -2.860053                                 
 C       2.743252       3.903398      -3.610446                                 
 C       2.606398       5.046319      -4.618400                                 
 C       2.844953       6.412445      -3.972029                                 
 C       4.177210       6.466571      -3.221637                                 
 C       4.314064       5.323651      -2.213682                                 
 H       4.880169       3.761462      -3.565557                                 
 H       4.065647       3.200303      -2.078953                                 
 H       2.684137       2.958385      -4.146199                                 
 H       1.933701       3.978600      -2.887516                                 
 H       3.340206       4.902688      -5.408674                                 
 H       1.599629       5.027741      -5.030472                                 
 H       2.040292       6.608498      -3.266528                                 
 H       2.854814       7.169667      -4.753129                                 
 H       4.986761       6.391370      -3.944566                                 
 H       4.236333       7.411585      -2.685888                                 
 H       3.580255       5.467282      -1.423408                                 
 H       5.320832       5.342228      -1.801610                                 
 C       1.563587      -6.717251       0.307373                                 
 C       0.917429      -6.981576      -1.054070                                 
 C       1.840521      -6.594758      -2.211341                                 
 C       2.344824      -5.155673      -2.086042                                 
 C       2.990991      -4.891348      -0.724604                                 
 C       2.067899      -5.278176       0.432665                                 
 H       2.407437      -7.393165       0.428842                                 
 H       0.822900      -6.894975       1.084155                                 
 H       0.689707      -8.042645      -1.130728                                 
 H       0.004834      -6.393629      -1.125838                                 
 H       2.697653      -7.264772      -2.211264                                 
 H       1.287652      -6.689440      -3.143573                                 
 H       1.500983      -4.479759      -2.207516                                 
 H       3.085511      -4.977949      -2.862824                                 
 H       3.903585      -5.479305      -0.652838                                 
 H       3.218703      -3.830291      -0.647943                                 
 H       1.210758      -4.608152       0.432595                                 
 H       2.620768      -5.183484       1.364899                                 
                                                                                
      -2.096566      -0.480091      -3.928339      -0.120000                    
      -1.838176      -1.880766      -4.487101      -0.120000                    
      -0.481357      -2.432803      -4.045125      -0.120000                    
       0.662078      -1.467995      -4.365627      -0.120000                    
       0.403675      -0.067310      -3.806867      -0.120000                    
      -0.953130       0.484726      -4.248838      -0.120000                    
      -2.199455      -0.550418      -2.847513       0.060000                    
      -3.012275      -0.092951      -4.370153       0.060000                    
      -2.618765      -2.547958      -4.127675       0.060000                    
      -1.855715      -1.830328      -5.573764       0.060000                    
      -0.506438      -2.597294      -2.969969       0.060000                    
      -0.301192      -3.370743      -4.566230       0.060000                    
       0.764963      -1.397656      -5.446460       0.060000                    
       1.577787      -1.855126      -3.923812       0.060000                    
       0.421226      -0.117759      -2.720203       0.060000                    
       1.184268       0.599871      -4.166287       0.060000                    
      -0.928063       0.649209      -5.324001       0.060000                    
      -1.133297       1.422657      -3.727736       0.060000                    
      -7.545791       0.203604      -1.399851      -0.120000                    
      -7.767008      -0.872307      -2.464940      -0.120000                    
      -7.413007      -2.269165      -1.950655      -0.120000                    
      -6.000276      -2.323732      -1.365658      -0.120000                    
      -5.779053      -1.247822      -0.300560      -0.120000                    
      -6.133069       0.149037      -0.814849      -0.120000                    
      -8.261479       0.048642      -0.595201       0.060000                    
      -7.695902       1.180064      -1.855535       0.060000                    
      -8.815483      -0.864000      -2.755003       0.060000                    
      -7.136405      -0.647437      -3.322499       0.060000                    
      -8.122320      -2.543309      -1.172615       0.060000                    
      -7.473082      -2.970574      -2.780180       0.060000                    
      -5.284593      -2.168782      -2.170297       0.060000                    
      -5.850160      -3.300194      -0.909965       0.060000                    
      -6.409667      -1.472703       0.557001       0.060000                    
      -4.730593      -1.256128      -0.010501       0.060000                    
      -5.423747       0.423182      -1.592894       0.060000                    
      -6.072981       0.850434       0.014677       0.060000                    
      -2.825186      -2.087351       4.344330      -0.120000                    
      -3.766493      -2.106093       5.550369      -0.120000                    
      -4.186027      -3.528240       5.927834      -0.120000                    
      -4.767447      -4.290099       4.735153      -0.120000                    
      -3.826140      -4.271358       3.529114      -0.120000                    
      -3.406600      -2.849203       3.151660      -0.120000                    
      -1.884792      -2.553978       4.629970       0.060000                    
      -2.659060      -1.053570       4.048975       0.060000                    
      -3.253518      -1.658161       6.398814       0.060000                    
      -4.658666      -1.534264       5.304005       0.060000                    
      -3.311253      -4.064281       6.289831       0.060000                    
      -4.943262      -3.472023       6.707024       0.060000                    
      -5.707839      -3.823462       4.449515       0.060000                    
      -4.933572      -5.323881       5.030509       0.060000                    
      -2.933962      -4.843189       3.775487       0.060000                    
      -4.339113      -4.719279       2.680670       0.060000                    
      -4.281383      -2.313163       2.789667       0.060000                    
      -2.649370      -2.905427       2.372459       0.060000                    
       5.168874       1.108906      -4.496609      -0.120000                    
       5.040000       0.129782      -5.665214      -0.120000                    
       4.152706      -1.066584      -5.315284      -0.120000                    
       4.609327      -1.763041      -4.031744      -0.120000                    
       4.738195      -0.783914      -2.863147      -0.120000                    
       5.625491       0.412451      -3.213077      -0.120000                    
       4.198079       1.566247      -4.317512       0.060000                    
       5.901466       1.869128      -4.759145       0.060000                    
       4.599598       0.653695      -6.510828       0.060000                    
       6.031542      -0.236380      -5.922973       0.060000                    
       3.132949      -0.714098      -5.175696       0.060000                    
       4.195821      -1.782432      -6.133468       0.060000                    
       5.580127      -2.220379      -4.210855       0.060000                    
       3.876744      -2.523272      -3.769215       0.060000                    
       3.746655      -0.417752      -2.605389       0.060000                    
       5.178598      -1.307828      -2.017534       0.060000                    
       6.645247       0.059966      -3.352665       0.060000                    
       5.582376       1.128300      -2.394894       0.060000                    
       3.023821       6.266890       3.808088      -0.120000                    
       2.991354       4.888586       4.471516      -0.120000                    
       1.606050       4.244484       4.387264      -0.120000                    
       0.511240       5.166597       4.927735      -0.120000                    
       0.543707       6.544891       4.264306      -0.120000                    
       1.929011       7.188993       4.348557      -0.120000                    
       2.875318       6.141136       2.737671       0.060000                    
       3.991392       6.724197       4.003650       0.060000                    
       3.706362       4.242667       3.966429       0.060000                    
       3.259310       5.000956       5.519966       0.060000                    
       1.389259       4.021214       3.344782       0.060000                    
       1.611750       3.329458       4.975842       0.060000                    
       0.659743       5.292352       5.998153       0.060000                    
      -0.456331       4.709280       4.732171       0.060000                    
       0.275751       6.432520       3.215855       0.060000                    
      -0.171301       7.190810       4.769392       0.060000                    
       2.145802       7.412262       5.391039       0.060000                    
       1.923311       8.104018       3.759979       0.060000                    
      -3.069938      -5.588161      -2.960435      -0.120000                    
      -2.913654      -7.105227      -2.837999      -0.120000                    
      -3.749063      -7.676679      -1.690606      -0.120000                    
      -3.468760      -6.962991      -0.366562      -0.120000                    
      -3.625044      -5.445934      -0.489000      -0.120000                    
      -2.789635      -4.874474      -1.636391      -0.120000                    
      -4.090719      -5.367263      -3.265124       0.060000                    
      -2.366444      -5.225254      -3.706738       0.060000                    
      -3.240545      -7.564658      -3.768421       0.060000                    
      -1.866119      -7.333005      -2.652330       0.060000                    
      -4.802557      -7.556465      -1.934172       0.060000                    
      -3.506348      -8.730975      -1.575415       0.060000                    
      -2.447980      -7.183899      -0.061875       0.060000                    
      -4.172254      -7.325898       0.379741       0.060000                    
      -4.672580      -5.218157      -0.674669       0.060000                    
      -3.298153      -4.986495       0.441424       0.060000                    
      -1.736141      -4.994697      -1.392828       0.060000                    
      -3.032350      -3.820187      -1.751585       0.060000                    
       0.956592      -5.301312       6.119664      -0.120000                    
       0.240126      -6.608174       6.465590      -0.120000                    
      -0.088732      -7.429324       5.217160      -0.120000                    
      -0.859142      -6.610784       4.179140      -0.120000                    
      -0.142676      -5.303922       3.833214      -0.120000                    
       0.186191      -4.482772       5.081638      -0.120000                    
       1.938330      -5.539403       5.715742       0.060000                    
       1.055292      -4.708355       7.026428       0.060000                    
       0.887206      -7.199376       7.110068       0.060000                    
      -0.688666      -6.369970       6.979657       0.060000                    
       0.842604      -7.769980       4.769794       0.060000                    
      -0.699315      -8.280314       5.511679       0.060000                    
      -1.840881      -6.372693       4.583063       0.060000                    
      -0.957842      -7.203741       3.272376       0.060000                    
       0.786111      -5.542123       3.319138       0.060000                    
      -0.789760      -4.712718       3.188727       0.060000                    
      -0.745145      -4.142116       5.529004       0.060000                    
       0.796769      -3.631788       4.787109       0.060000                    
      -4.505034       2.496919      -4.334793      -0.120000                    
      -4.090334       2.795641      -5.776907      -0.120000                    
      -4.260596       4.275222      -6.127416      -0.120000                    
      -5.672875       4.778079      -5.821376      -0.120000                    
      -6.087589       4.479357      -4.379264      -0.120000                    
      -5.917314       2.999775      -4.028751      -0.120000                    
      -3.806747       2.991248      -3.662708       0.060000                    
      -4.478502       1.420220      -4.181310       0.060000                    
      -3.043221       2.527392      -5.900252       0.060000                    
      -4.712396       2.205848      -6.446860       0.060000                    
      -3.550487       4.855226      -5.541773       0.060000                    
      -4.068069       4.405080      -7.190356       0.060000                    
      -6.371164       4.283749      -6.493460       0.060000                    
      -5.699409       5.854777      -5.974857       0.060000                    
      -5.465514       5.069159      -3.709305       0.060000                    
      -7.134689       4.747605      -4.255915       0.060000                    
      -6.627428       2.419773      -4.614403       0.060000                    
      -6.109842       2.869916      -2.965811       0.060000                    
      10.201926       2.518876      -1.289223      -0.120000                    
       8.696869       2.243847      -1.297958      -0.120000                    
       7.975862       3.036103      -2.390443      -0.120000                    
       8.284568       4.532597      -2.311846      -0.120000                    
       9.789625       4.807625      -2.303111      -0.120000                    
      10.510631       4.015359      -1.210628      -0.120000                    
      10.633118       2.122644      -2.206135       0.060000                    
      10.640140       2.027559      -0.423115       0.060000                    
       8.538410       1.182381      -1.476219       0.060000                    
       8.285542       2.529840      -0.332204       0.060000                    
       8.299734       2.664755      -3.360392       0.060000                    
       6.903557       2.895603      -2.271487       0.060000                    
       7.853375       4.928829      -1.394934       0.060000                    
       7.846359       5.023912      -3.177946       0.060000                    
      10.200954       4.521630      -3.268856       0.060000                    
       9.948087       5.869080      -2.124843       0.060000                    
      10.186764       4.386705      -0.240670       0.060000                    
      11.582940       4.155857      -1.329575       0.060000                    
      -6.757124       4.742929      -0.528685      -0.120000                    
      -6.863790       3.809407       0.678817      -0.120000                    
      -8.251556       3.859598       1.321194      -0.120000                    
      -8.673433       5.289933       1.663534      -0.120000                    
      -8.566768       6.223454       0.456032      -0.120000                    
      -7.179006       6.173260      -0.186332      -0.120000                    
      -7.406971       4.367939      -1.316536       0.060000                    
      -5.723263       4.757004      -0.867050       0.060000                    
      -6.669958       2.790962       0.349120       0.060000                    
      -6.126787       4.113113       1.419267       0.060000                    
      -8.973390       3.442002       0.622503       0.060000                    
      -8.231615       3.274170       2.238035       0.060000                    
      -8.023582       5.664920       2.451394       0.060000                    
      -9.707294       5.275857       2.001899       0.060000                    
      -9.303769       5.919748      -0.284418       0.060000                    
      -8.760594       7.241897       0.785738       0.060000                    
      -6.457167       6.590859       0.512346       0.060000                    
      -7.198942       6.758691      -1.103185       0.060000                    
       0.542639       0.238579       8.550418      -0.120000                    
       0.131179      -0.680859       7.398797      -0.120000                    
       0.136029       0.048178       6.053626      -0.120000                    
      -0.701268       1.328188       6.092272      -0.120000                    
      -0.289799       2.247626       7.243889      -0.120000                    
      -0.294649       1.518590       8.589059      -0.120000                    
       1.588096       0.510768       8.421518       0.060000                    
       0.404651      -0.295560       9.488107       0.060000                    
       0.833979      -1.509763       7.347522       0.060000                    
      -0.874167      -1.049838       7.590631       0.060000                    
       1.161873       0.311150       5.804385       0.060000                    
      -0.277856      -0.615271       5.297156       0.060000                    
      -1.746725       1.055999       6.221173       0.060000                    
      -0.563271       1.862328       5.154579       0.060000                    
       0.715538       2.616605       7.052060       0.060000                    
      -0.992599       3.076531       7.295165       0.060000                    
      -1.320493       1.255617       8.838302       0.060000                    
       0.119227       2.182039       9.345535       0.060000                    
      10.274530      -0.447865       1.938887      -0.120000                    
       8.745544      -0.476120       1.987167      -0.120000                    
       8.195244       0.308255       3.180057      -0.120000                    
       8.818874      -0.145556       4.501487      -0.120000                    
      10.347855      -0.117289       4.453199      -0.120000                    
      10.898156      -0.901664       3.260310      -0.120000                    
      10.597164       0.570749       1.733908       0.060000                    
      10.609862      -1.116141       1.148590       0.060000                    
       8.360502      -0.032117       1.071678       0.060000                    
       8.419391      -1.510661       2.071047       0.060000                    
       8.417634       1.363279       3.034856       0.060000                    
       7.119630       0.152997       3.231831       0.060000                    
       8.496237      -1.164158       4.706459       0.060000                    
       8.483538       0.522732       5.291777       0.060000                    
      10.674008       0.917243       4.369318       0.060000                    
      10.732898      -0.561292       5.368689       0.060000                    
      10.675766      -1.956698       3.405509       0.060000                    
      11.973781      -0.746405       3.208530       0.060000                    
       7.575179      -5.469526      -1.936388      -0.120000                    
       7.156431      -4.043877      -1.571517      -0.120000                    
       7.609548      -3.656370      -0.162412      -0.120000                    
       7.154480      -4.673470       0.886129      -0.120000                    
       7.573237      -6.099109       0.521256      -0.120000                    
       7.120125      -6.486618      -0.887840      -0.120000                    
       8.660212      -5.505678      -2.007864       0.060000                    
       7.125201      -5.730302      -2.891955       0.060000                    
       7.607764      -3.355966      -2.283336       0.060000                    
       6.071504      -3.977418      -1.618423       0.060000                    
       8.696195      -3.605097      -0.148421       0.060000                    
       7.182825      -2.686778       0.085621       0.060000                    
       6.069447      -4.637318       0.957604       0.060000                    
       7.604472      -4.412686       1.841702       0.060000                    
       8.658164      -6.165568       0.568162       0.060000                    
       7.121903      -6.787030       1.233072       0.060000                    
       6.033478      -6.537891      -0.901832       0.060000                    
       7.546844      -7.456208      -1.135882       0.060000                    
      -3.264766       8.600955       3.504457      -0.120000                    
      -3.145476       8.542108       5.028669      -0.120000                    
      -3.884197       7.337445       5.615269      -0.120000                    