%nprocshared=4                                                                       
%mem=8GB                                                                             
#P pop=chelpg cam-b3lyp/gen scf=qc int=ultrafine charge td(nstates=10)               
                                                                                     
pNA CAM-B3LYP def2-TZVPD Single point - solvent def2-SV(P)                           
                                                                                     
0 1                                                                                  
 C       1.386341       0.000000       0.000000                                 
 C       0.000000       0.000000       0.000000                                 
 C      -0.712907       1.188984      -0.000000                                 
 C      -0.035635       2.384357       0.000131                                 
 C       1.365534       2.410943       0.000833                                 
 C       2.063239       1.195576       0.000133                                 
 H       1.918972      -0.938700       0.000854                                 
 H      -1.791888       1.163049       0.000837                                 
 H      -0.586620       3.315732      -0.002113                                 
 H       3.145392       1.202000      -0.002090                                 
 N      -0.713906      -1.260429       0.001744                                 
 O      -1.931758      -1.232720       0.002551                                 
 O      -0.063858      -2.290656       0.002518                                 
 N       2.037885       3.598040      -0.033161                                 
 H       1.540331       4.445798       0.174764                                 
 H       3.020819       3.607257       0.174736                                 
 C      -0.771970       6.188394      -2.331608                                 
 C       0.639600       5.839321      -2.807501                                 
 C       1.714542       6.551660      -1.984054                                 
 C       1.486020       8.063496      -1.928348                                 
 C       0.074451       8.412569      -1.452455                                 
 C      -1.000486       7.700230      -2.275911                                 
 H      -0.913881       5.778349      -1.333909                                 
 H      -1.489751       5.753560      -3.023882                                 
 H       0.783158       4.765200      -2.711637                                 
 H       0.740751       6.142233      -3.847540                                 
 H       1.692495       6.159091      -0.969652                                 
 H       2.683964       6.363232      -2.440578                                 
 H       1.627931       8.473540      -2.926047                                 
 H       2.203801       8.498329      -1.236074                                 
 H      -0.026701       8.109656      -0.412416                                 
 H      -0.069108       9.486690      -1.548319                                 
 H      -0.978440       8.092798      -3.290313                                 
 H      -1.969914       7.888658      -1.819378                                 
 C       6.230386       3.300717      -4.472450                                 
 C       5.376893       2.386951      -5.354195                                 
 C       3.880387       2.645261      -5.167787                                 
 C       3.465054       2.573445      -3.696929                                 
 C       4.318547       3.487203      -2.815174                                 
 C       5.815053       3.228902      -3.001592                                 
 H       6.112501       4.325813      -4.817315                                 
 H       7.270215       2.991839      -4.555543                                 
 H       5.634121       2.569288      -6.395454                                 
 H       5.586855       1.352870      -5.089149                                 
 H       3.649268       3.638742      -5.546221                                 
 H       3.325701       1.891595      -5.722849                                 
 H       3.582934       1.548349      -3.352056                                 
 H       2.425225       2.882323      -3.613836                                 
 H       4.108584       4.521292      -3.080230                                 
 H       4.061323       3.304866      -1.773922                                 
 H       6.046176       2.235412      -2.623156                                 
 H       6.369733       3.982566      -2.446522                                 
 C      -0.928993      -3.166830      -4.667671                                 
 C      -0.802057      -1.809700      -3.972731                                 
 C       0.659180      -1.412222      -3.754080                                 
 C       1.447775      -2.503941      -3.027929                                 
 C       1.320839      -3.861071      -3.722869                                 
 C      -0.140404      -4.258549      -3.941511                                 
 H      -0.544143      -3.075805      -5.681233                                 
 H      -1.979026      -3.450808      -4.686823                                 
 H      -1.278417      -1.054712      -4.594593                                 
 H      -1.295257      -1.867279      -3.004668                                 
 H       1.120522      -1.236588      -4.723595                                 
 H       0.686673      -0.505538      -3.153325                                 
 H       1.062926      -2.594960      -2.014354                                 
 H       2.497808      -2.219962      -3.008776                                 
 H       1.814038      -3.803491      -4.690931                                 
 H       1.797188      -4.616051      -3.101002                                 
 H      -0.601746      -4.434184      -2.971997                                 
 H      -0.167896      -5.165233      -4.542266                                 
 C       1.031323       1.211394       4.844522                                 
 C       2.225920       2.163988       4.924619                                 
 C       3.090706       2.105956       3.663744                                 
 C       3.519359       0.676132       3.327854                                 
 C       2.324757      -0.276453       3.247754                                 
 C       1.459978      -0.218416       4.508633                                 
 H       0.357017       1.563919       4.066894                                 
 H       0.526029       1.205605       5.807943                                 
 H       1.853663       3.179203       5.044468                                 
 H       2.837910       1.883120       5.779149                                 
 H       2.515675       2.501648       2.829253                                 
 H       3.982775       2.707289       3.826078                                 
 H       4.193654       0.323615       4.105488                                 
 H       4.024655       0.681935       2.364434                                 
 H       1.712771       0.004407       2.393227                                 
 H       2.697015      -1.291664       3.127918                                 
 H       2.035001      -0.614114       5.343121                                 
 H       0.567902      -0.819754       4.346295                                 
 C       6.359043      -0.879237       0.188901                                 
 C       6.206998      -0.159164      -1.152484                                 
 C       6.382288      -1.111380      -2.337183                                 
 C       7.693282      -1.895772      -2.253198                                 
 C       7.845317      -2.615838      -0.911807                                 
 C       7.670033      -1.663629       0.272895                                 
 H       5.530097      -1.573997       0.306526                                 
 H       6.345876      -0.137857       0.984989                                 
 H       5.211833       0.277624      -1.201769                                 
 H       6.964350       0.619236      -1.217064                                 
 H       5.554426      -1.817266      -2.341338                                 
 H       6.384778      -0.527389      -3.255166                                 
 H       8.522225      -1.200998      -2.370812                                 
 H       7.706445      -2.637152      -3.049277                                 
 H       7.087971      -3.394237      -0.847236                                 
 H       8.840491      -3.052632      -0.862528                                 
 H       8.497894      -0.957743       0.277050                                 
 H       7.667537      -2.247612       1.190875                                 
 C       1.536830       6.539124       3.823091                                 
 C       2.714487       6.685953       2.857440                                 
 C       4.028520       6.209012       3.479442                                 
 C       4.303551       6.882750       4.825325                                 
 C       3.125905       6.735926       5.790972                                 
 C       1.811862       7.212875       5.168976                                 
 H       1.357913       5.479791       3.994740                                 
 H       0.660141       7.002165       3.375232                                 
 H       2.513099       6.089399       1.970243                                 
 H       2.816869       7.735818       2.591023                                 
 H       3.969697       5.133782       3.634455                                 
 H       4.842499       6.448063       2.798236                                 
 H       4.482475       7.942097       4.653669                                 
 H       5.180246       6.419723       5.273177                                 
 H       3.023514       5.686069       6.057395                                 
 H       3.327284       7.332488       6.678175                                 
 H       1.870691       8.288105       5.013954                                 
 H       0.997889       6.973825       5.850173                                 
                                                                                
      -2.524021       3.007900       3.733716      -0.120000                    
      -1.739681       3.626844       4.892438      -0.120000                    
      -2.421134       4.882736       5.439583      -0.120000                    
      -2.714801       5.902131       4.337060      -0.120000                    
      -3.499140       5.283192       3.178352      -0.120000                    
      -2.817681       4.027301       2.631198      -0.120000                    
      -3.468894       2.628356       4.116923       0.060000                    
      -1.935763       2.196891       3.309631       0.060000                    
      -1.666384       2.894146       5.693321       0.060000                    
      -0.747838       3.896771       4.536003       0.060000                    
      -3.361019       4.593546       5.905030       0.060000                    
      -1.763005       5.343806       6.173056       0.060000                    
      -1.769928       6.281675       3.953854       0.060000                    
      -3.303051       6.713145       4.761150       0.060000                    
      -4.490977       5.013266       3.534778       0.060000                    
      -3.572431       6.015891       2.377460       0.060000                    
      -1.877796       4.316491       2.165751       0.060000                    
      -3.475810       3.566231       1.897725       0.060000                    
       3.685207      -3.986615      -0.411624      -0.120000                    
       2.604543      -4.729172       0.376854      -0.120000                    
       3.192359      -5.843276       1.245344      -0.120000                    
       4.069551      -6.799639       0.434830      -0.120000                    
       5.150227      -6.057076      -0.353652      -0.120000                    
       4.562399      -4.942978      -1.222138      -0.120000                    
       4.316910      -3.445143       0.289404       0.060000                    
       3.201460      -3.293575      -1.096639       0.060000                    
       2.094402      -4.017549       1.022526       0.060000                    
       1.902287      -5.170918      -0.326976       0.060000                    
       3.800264      -5.391272       2.026234       0.060000                    
       2.374088      -6.409945       1.684650       0.060000                    
       3.437853      -7.341110      -0.266207       0.060000                    
       4.553309      -7.492672       1.119841       0.060000                    
       5.852471      -5.615335       0.350182       0.060000                    
       5.660351      -6.768696      -0.999323       0.060000                    
       3.954499      -5.394982      -2.003036       0.060000                    
       5.380675      -4.376308      -1.661453       0.060000                    
      -6.011879       5.996635      -2.078734      -0.120000                    
      -6.259200       4.609223      -2.674390      -0.120000                    
      -5.733317       3.494358      -1.767994      -0.120000                    
      -4.264510       3.704137      -1.394416      -0.120000                    
      -4.017182       5.091555      -0.798756      -0.120000                    
      -4.543072       6.206415      -1.705157      -0.120000                    
      -6.617463       6.102658      -1.181136       0.060000                    
      -6.293844       6.746386      -2.814904       0.060000                    
      -7.330537       4.473525      -2.806605       0.060000                    
      -5.749705       4.546796      -3.633645       0.060000                    
      -6.325502       3.479760      -0.855470       0.060000                    
      -5.826402       2.546230      -2.293417       0.060000                    
      -3.658926       3.598114      -2.292015       0.060000                    
      -3.982545       2.954387      -0.658246       0.060000                    
      -4.526684       5.153977       0.160495       0.060000                    
      -2.945852       5.227248      -0.666545       0.060000                    
      -3.950887       6.221013      -2.617681       0.060000                    
      -4.449980       7.154548      -1.179729       0.060000                    
      -2.476467      -0.616502       4.899312      -0.120000                    
      -3.823529      -0.332883       5.566991      -0.120000                    
      -4.781465      -1.520370       5.451985      -0.120000                    
      -4.946313      -1.985798       4.003814      -0.120000                    
      -3.599246      -2.269424       3.336138      -0.120000                    
      -2.641309      -1.081930       3.451133      -0.120000                    
      -1.968216      -1.398163       5.459991       0.060000                    
      -1.885979       0.297213       4.905730       0.060000                    
      -3.652280      -0.125178       6.621119       0.060000                    
      -4.277684       0.528414       5.081608       0.060000                    
      -4.384344      -2.345556       6.039334       0.060000                    
      -5.755037      -1.219862       5.833518       0.060000                    
      -5.454552      -1.204140       3.443143       0.060000                    
      -5.536796      -2.899521       3.997399       0.060000                    
      -3.145096      -3.130713       3.821518       0.060000                    
      -3.770493      -2.477116       2.282012       0.060000                    
      -3.038429      -0.256739       2.863797       0.060000                    
      -1.667736      -1.382432       3.069613       0.060000                    
       8.325264       4.835376       0.093893      -0.120000                    
       6.898685       5.062646       0.597981      -0.120000                    
       6.570364       4.181896       1.805260      -0.120000                    
       6.852213       2.703482       1.529942      -0.120000                    
       8.278793       2.476217       1.025867      -0.120000                    
       8.607118       3.356954      -0.181422      -0.120000                    
       9.022037       5.186832       0.851967       0.060000                    
       8.460391       5.393068      -0.830413       0.060000                    
       6.795082       6.105509       0.889999       0.060000                    
       6.204174       4.824807      -0.204956       0.060000                    
       7.182506       4.501874       2.645793       0.060000                    
       5.514646       4.296290       2.042181       0.060000                    
       6.155441       2.352018       0.771879       0.060000                    
       6.717088       2.145795       2.454262       0.060000                    
       8.973299       2.714051       1.828800       0.060000                    
       8.382390       1.433349       0.733846       0.060000                    
       7.994967       3.036984      -1.021950       0.060000                    
       9.662843       3.242565      -0.418339       0.060000                    
      -5.101376      -1.104187      -2.802363      -0.120000                    
      -5.695640      -0.789784      -1.427997      -0.120000                    
      -7.138166      -1.283657      -1.300747      -0.120000                    
      -8.022551      -0.769820      -2.438658      -0.120000                    
      -7.428283      -1.084236      -3.813035      -0.120000                    
      -5.985756      -0.590364      -3.940285      -0.120000                    
      -5.001826      -2.183190      -2.899526       0.060000                    
      -4.126536      -0.627028      -2.877090       0.060000                    
      -5.091824      -1.280467      -0.667583       0.060000                    
      -5.683141       0.288304      -1.282140       0.060000                    
      -7.136718      -2.371316      -1.325508       0.060000                    
      -7.545264      -0.928271      -0.356461       0.060000                    
      -8.122107       0.309177      -2.341500       0.060000                    
      -8.997392      -1.246984      -2.363945       0.060000                    
      -7.440787      -2.162315      -3.958894       0.060000                    
      -8.032099      -0.593554      -4.573449       0.060000                    
      -5.987210       0.497305      -3.915527       0.060000                    
      -5.578664      -0.945740      -4.884573       0.060000                    
      -2.700922       3.486250      -5.752948      -0.120000                    
      -2.948200       2.284082      -4.839396      -0.120000                    
      -1.708797       1.924356      -4.017497      -0.120000                    
      -0.473136       1.730048      -4.898620      -0.120000                    
      -0.225858       2.932215      -5.812171      -0.120000                    
      -1.465262       3.291942      -6.634070      -0.120000                    
      -2.551273       4.368373      -5.133945       0.060000                    
      -3.568739       3.618991      -6.395544       0.060000                    
      -3.759543       2.527279      -4.156700       0.060000                    
      -3.217041       1.428678      -5.455567       0.060000                    
      -1.511379       2.731164      -3.314837       0.060000                    
      -1.903518       0.997247      -3.482490       0.060000                    
      -0.622777       0.847930      -5.517617       0.060000                    
       0.394681       1.597307      -4.256023       0.060000                    
       0.042983       3.787620      -5.196000       0.060000                    
       0.585485       2.689019      -6.494868       0.060000                    
      -1.662679       2.485134      -7.336730       0.060000                    
      -1.270540       4.219051      -7.169077       0.060000                    
      -2.278203      -6.149429       1.528896      -0.120000                    
      -1.274547      -6.445577       2.645103      -0.120000                    
      -1.682210      -7.665658       3.473506      -0.120000                    
      -3.111876      -7.545926       4.005214      -0.120000                    
      -4.115532      -7.249779       2.889006      -0.120000                    
      -3.707874      -6.029690       2.060601      -0.120000                    
      -2.243200      -6.961267       0.805435       0.060000                    
      -2.003709      -5.209466       1.054839       0.060000                    
      -0.302523      -6.639026       2.196386       0.060000                    
      -1.221082      -5.580744       3.303050       0.060000                    
      -1.618421      -8.550540       2.843788       0.060000                    
      -1.003166      -7.754451       4.318936       0.060000                    
      -3.146879      -6.734088       4.728675       0.060000                    
      -3.386375      -8.485882       4.479268       0.060000                    
      -4.169003      -8.114613       2.231068       0.060000                    
      -5.087561      -7.056322       3.337721       0.060000                    
      -3.771668      -5.144808       2.690328       0.060000                    
      -4.386914      -5.940905       1.215173       0.060000                    
       4.720326       8.549992       0.382642      -0.120000                    
       4.783209       9.866322       1.159928      -0.120000                    
       4.254180      11.043232       0.337713      -0.120000                    
       4.944771      11.147931      -1.023569      -0.120000                    
       4.881889       9.831602      -1.800854      -0.120000                    
       5.410930       8.654697      -0.978644      -0.120000                    
       3.676033       8.289686       0.223577       0.060000                    
       5.217104       7.777678       0.965990       0.060000                    
       4.176839       9.769156       2.057941       0.060000                    
       5.819758      10.064910       1.424176       0.060000                    
       3.187411      10.903085       0.176524       0.060000                    
       4.434649      11.962644       0.890722       0.060000                    
       5.989072      11.408242      -0.864499       0.060000                    
       4.448005      11.920252      -1.606922       0.060000                    
       3.845351       9.633010      -2.065095       0.060000                    
       5.488276       9.928765      -2.698870       0.060000                    
       6.477704       8.794836      -0.817453       0.060000                    
       5.230465       7.735276      -1.531651       0.060000                    
      -6.093249      -6.701253      -2.956489      -0.120000                    
      -5.192573      -7.769430      -3.579922      -0.120000                    
      -3.745277      -7.651308      -3.097866      -0.120000                    
      -3.186801      -6.241333      -3.300440      -0.120000                    
      -4.087477      -5.173147      -2.677018      -0.120000                    
      -5.534771      -5.291264      -3.159061      -0.120000                    
      -6.172804      -6.893564      -1.888612       0.060000                    
      -7.073946      -6.757265      -3.424077       0.060000                    
      -5.572646      -8.750168      -3.301916       0.060000                    
      -5.209637      -7.650737      -4.661253       0.060000                    
      -3.711687      -7.889439      -2.036844       0.060000                    
      -3.132873      -8.352075      -3.661450       0.060000                    
      -3.107247      -6.049014      -4.368329       0.060000                    
      -2.206093      -6.185315      -2.832857       0.060000                    
      -4.070418      -5.291841      -1.595679       0.060000                    
      -3.707402      -4.192405      -2.955012       0.060000                    
      -5.568356      -5.053142      -4.220081       0.060000                    
      -6.147172      -4.590511      -2.595489       0.060000                    
      -9.042347       2.738183       3.244322      -0.120000                    
      -8.853900       2.733778       1.725978      -0.120000                    
      -7.933781       1.601199       1.265929      -0.120000                    
      -6.596520       1.611178       2.009350      -0.120000                    
      -6.784960       1.615589       3.527699      -0.120000                    
      -7.705086       2.748162       3.987743      -0.120000                    
      -9.591760       1.843357       3.529085       0.060000                    
      -9.601515       3.628900       3.522693       0.060000                    
      -9.826223       2.604685       1.255339       0.060000                    
      -8.413225       3.682681       1.427559       0.060000                    
      -8.429781       0.651627       1.455316       0.060000                    
      -7.740850       1.720530       0.201836       0.060000                    
      -6.047112       2.506012       1.724585       0.060000                    
      -6.037352       0.720461       1.730979       0.060000                    
      -7.225641       0.666680       3.826113       0.060000                    
      -5.812643       1.744677       3.998334       0.060000                    
      -7.209086       3.697734       3.798356       0.060000                    
      -7.898009       2.628837       5.051840       0.060000                    
       0.580476      -9.739478      -2.991242      -0.120000                    
      -0.340651      -8.538815      -2.765782      -0.120000                    
       0.071133      -7.723038      -1.538617      -0.120000                    
       0.194702      -8.593647      -0.286521      -0.120000                    
       1.115830      -9.794311      -0.511982      -0.120000                    
       0.704040     -10.610087      -1.739138      -0.120000                    
       1.569373      -9.373523      -3.259209       0.060000                    
       0.171202     -10.345253      -3.796873       0.060000                    
      -0.294591      -7.895810      -3.642143       0.060000                    
      -1.355361      -8.902121      -2.617221       0.060000                    
       1.035478      -7.259856      -1.736613       0.060000                    
      -0.683833      -6.960505      -1.358730       0.060000                    
      -0.794198      -8.959590      -0.018544       0.060000                    
       0.603978      -7.987867       0.519122       0.060000                    
       2.130534      -9.431005      -0.660534       0.060000                    
       1.069765     -10.437302       0.364389       0.060000                    
      -0.260302     -11.073256      -1.541140       0.060000                    
       1.459014     -11.372606      -1.919032       0.060000                    
      -9.244629      -4.692229       2.627280      -0.120000                    
      -8.638069      -3.294211       2.491212      -0.120000                    
      -7.843345      -3.138145       1.193102      -0.120000                    
      -6.791914      -4.237506       1.028897      -0.120000                    
      -7.398487      -5.635531       1.164969      -0.120000                    
      -8.193199      -5.791590       2.463076      -0.120000                    
     -10.002950      -4.818669       1.857449       0.060000                    
      -9.691042      -4.782912       3.615234       0.060000                    
      -9.444122      -2.563557       2.495339       0.060000                    
      -7.968670      -3.122354       3.331468       0.060000                    
      -8.534132      -3.189631       0.354220       0.060000                    
      -7.339023      -2.174212       1.207997       0.060000                    
      -6.033599      -4.111067       1.798737       0.060000                    
      -6.345502      -4.146824       0.040944       0.060000                    
      -8.067879      -5.807382       0.324718       0.060000                    
      -6.592427      -6.366179       1.160846       0.060000                    
      -7.502417      -5.740106       3.301965       0.060000                    
      -8.697526      -6.755523       2.448189       0.060000                    
      -0.952462       9.741525       4.089008      -0.120000                    
       0.041620       9.957446       2.946165      -0.120000                    
       1.165069      10.919438       3.337872      -0.120000                    