%nprocshared=4                                                                       
%mem=8GB                                                                             
#P pop=chelpg cam-b3lyp/gen scf=qc int=ultrafine charge td(nstates=10)               
                                                                                     
pNA CAM-B3LYP def2-TZVPD Single point - solvent def2-SV(P)                           
                                                                                     
0 1                                                                                  
 C       1.386341       0.000000       0.000000                                 
 C       0.000000       0.000000       0.000000                                 
 C      -0.712907       1.188984      -0.000000                                 
 C      -0.035635       2.384357       0.000131                                 
 C       1.365534       2.410943       0.000833                                 
 C       2.063239       1.195576       0.000133                                 
 H       1.918972      -0.938700       0.000854                                 
 H      -1.791888       1.163049       0.000837                                 
 H      -0.586620       3.315732      -0.002113                                 
 H       3.145392       1.202000      -0.002090                                 
 N      -0.713906      -1.260429       0.001744                                 
 O      -1.931758      -1.232720       0.002551                                 
 O      -0.063858      -2.290656       0.002518                                 
 N       2.037885       3.598040      -0.033161                                 
 H       1.540331       4.445798       0.174764                                 
 H       3.020819       3.607257       0.174736                                 
 C       5.533319       1.515111      -2.019331                                 
 C       6.087490       0.111769      -1.765387                                 
 C       7.363474      -0.154191      -2.566725                                 
 C       7.172072       0.125066      -4.058829                                 
 C       6.617916       1.528395      -4.312757                                 
 C       5.341935       1.794365      -3.511447                                 
 H       6.233653       2.243673      -1.616329                                 
 H       4.569427       1.603440      -1.522655                                 
 H       6.315563       0.014436      -0.706143                                 
 H       5.334913      -0.617439      -2.057921                                 
 H       8.152002       0.493868      -2.190073                                 
 H       7.641354      -1.198599      -2.441357                                 
 H       6.471747      -0.603507      -4.461848                                 
 H       8.135978       0.036726      -4.555514                                 
 H       7.370492       2.257605      -4.020248                                 
 H       6.389833       1.625744      -5.372033                                 
 H       4.553403       1.146299      -3.888096                                 
 H       5.064051       2.838765      -3.636812                                 
 C       4.333200       3.722166       3.535680                                 
 C       5.579413       3.472791       2.683799                                 
 C       5.425849       2.239975       1.790743                                 
 C       5.020525       0.999886       2.590063                                 
 C       3.774318       1.249255       3.441939                                 
 C       3.927876       2.482077       4.334999                                 
 H       3.511135       3.995563       2.877559                                 
 H       4.544147       4.530983       4.232020                                 
 H       5.747625       4.341686       2.051102                                 
 H       6.428395       3.318507       3.346439                                 
 H       4.656494       2.441996       1.048493                                 
 H       6.378271       2.043218       1.302998                                 
 H       5.842589       0.726490       3.248183                                 
 H       4.809584       0.191070       1.893731                                 
 H       2.925330       1.403545       2.779304                                 
 H       3.606107       0.380360       4.074635                                 
 H       4.697231       2.280056       5.077249                                 
 H       2.975454       2.678834       4.822744                                 
 C      -1.598653       5.504179       2.555900                                 
 C      -0.299870       4.728576       2.785078                                 
 C      -0.057918       4.441510       4.268347                                 
 C      -0.123290       5.713242       5.116517                                 
 C      -1.422066       6.488839       4.887334                                 
 C      -1.664017       6.775906       3.404065                                 
 H      -2.437289       4.864657       2.823045                                 
 H      -1.656358       5.783193       1.505960                                 
 H      -0.361994       3.781513       2.253291                                 
 H       0.530262       5.320662       2.405649                                 
 H      -0.822266       3.750753       4.617972                                 
 H       0.929885       3.999380       4.380238                                 
 H       0.715350       6.352750       4.849370                                 
 H      -0.065578       5.434223       6.166452                                 
 H      -2.252197       5.896754       5.266764                                 
 H      -1.359946       7.435894       5.419125                                 
 H      -0.899669       7.466662       3.054440                                 
 H      -2.651820       7.218037       3.292175                                 
 C      -5.439645       2.949559      -1.679032                                 
 C      -4.166467       3.048353      -0.836321                                 
 C      -4.405449       2.625968       0.614723                                 
 C      -5.572464       3.385998       1.248286                                 
 C      -6.845650       3.287209       0.405580                                 
 C      -6.606668       3.709595      -1.045464                                 
 H      -5.715978       1.901204      -1.769956                                 
 H      -5.240555       3.373832      -2.660831                                 
 H      -3.411707       2.394997      -1.268775                                 
 H      -3.822437       4.080452      -0.845795                                 
 H      -4.631857       1.562035       0.634339                                 
 H      -3.504467       2.830668       1.189244                                 
 H      -5.296135       4.434367       1.339211                                 
 H      -5.771558       2.961739       2.230087                                 
 H      -7.189676       2.255120       0.415050                                 
 H      -7.600410       3.940566       0.838034                                 
 H      -6.380256       4.773536      -1.065083                                 
 H      -7.507650       3.504894      -1.619985                                 
 C       4.440102       6.004606      -2.190771                                 
 C       3.205112       6.702885      -1.618002                                 
 C       2.681309       7.797011      -2.550503                                 
 C       3.775974       8.793864      -2.936417                                 
 C       5.010975       8.095590      -3.509194                                 
 C       5.534767       7.001460      -2.576686                                 
 H       4.145422       5.450539      -3.079509                                 
 H       4.836814       5.326848      -1.437850                                 
 H       2.421102       5.962030      -1.476446                                 
 H       3.472305       7.156222      -0.665787                                 
 H       2.301840       7.329345      -3.456532                                 
 H       1.884515       8.335427      -2.041600                                 
 H       4.070658       9.347941      -2.047683                                 
 H       3.379265       9.471631      -3.689342                                 
 H       4.743771       7.642248      -4.461401                                 
 H       5.794968       8.836440      -3.650751                                 
 H       5.914242       7.469129      -1.670672                                 
 H       6.331565       6.463052      -3.085592                                 
 C      -0.366823       5.060709      -3.156862                                 
 C       0.138856       3.632699      -3.371189                                 
 C      -0.541775       2.956550      -4.563063                                 
 C      -2.067263       3.015054      -4.461045                                 
 C      -2.572935       4.443059      -4.246722                                 
 C      -1.892316       5.119213      -3.054851                                 
 H      -0.051085       5.671586      -3.999953                                 
 H       0.058439       5.445024      -2.232215                                 
 H       1.210307       3.667403      -3.556473                                 
 H      -0.070605       3.051556      -2.475598                                 
 H      -0.234428       3.465974      -5.473902                                 
 H      -0.235127       1.913096      -4.592497                                 
 H      -2.383001       2.404177      -3.617953                                 
 H      -2.492522       2.630725      -5.385694                                 
 H      -2.363478       5.024193      -5.142310                                 
 H      -3.644387       4.408355      -4.061438                                 
 H      -2.199660       4.609775      -2.144014                                 
 H      -2.198963       6.162658      -3.025406                                 
                                                                                
      -2.888075      -4.017152      -3.124164      -0.120000                    
      -2.806813      -5.040627      -4.258553      -0.120000                    
      -2.653415      -6.468936      -3.731856      -0.120000                    
      -1.480180      -6.598060      -2.758290      -0.120000                    
      -1.561434      -5.574590      -1.623906      -0.120000                    
      -1.714833      -4.146281      -2.150603      -0.120000                    
      -3.813979      -4.178363      -2.576087       0.060000                    
      -2.873779      -3.018359      -3.555276       0.060000                    
      -3.721141      -4.982718      -4.845209       0.060000                    
      -1.944806      -4.804372      -4.878860       0.060000                    
      -3.568024      -6.748322      -3.213118       0.060000                    
      -2.479942      -7.133755      -4.575409       0.060000                    
      -0.554275      -6.436848      -3.306366       0.060000                    
      -1.494475      -7.596853      -2.327178       0.060000                    
      -2.423441      -5.810845      -1.003597       0.060000                    
      -0.647114      -5.632494      -1.037245       0.060000                    
      -0.800223      -3.866895      -2.669340       0.060000                    
      -1.888313      -3.481457      -1.307045       0.060000                    
       3.907148      -4.695020      -2.154093      -0.120000                    
       4.021721      -6.194776      -1.873939      -0.120000                    
       2.752865      -6.755849      -1.228822      -0.120000                    
       2.348253      -5.968929       0.019408      -0.120000                    
       2.233681      -4.469181      -0.260735      -0.120000                    
       3.502536      -3.908099      -0.905862      -0.120000                    
       3.151821      -4.541418      -2.921927       0.060000                    
       4.873230      -4.330536      -2.496869       0.060000                    
       4.191038      -6.712486      -2.815685       0.060000                    
       4.857673      -6.359244      -1.197322       0.060000                    
       1.941919      -6.701613      -1.952054       0.060000                    
       2.935757      -7.789829      -0.943802       0.060000                    
       3.103585      -6.122531       0.787251       0.060000                    
       1.382177      -6.333413       0.362193       0.060000                    
       1.397734      -4.304704      -0.937355       0.060000                    
       2.064363      -3.951462       0.681000       0.060000                    
       4.313487      -3.962335      -0.182622       0.060000                    
       3.319640      -2.874129      -1.190880       0.060000                    
       4.093491       7.789750       2.561690      -0.120000                    
       2.802176       7.054113       2.198077      -0.120000                    
       1.786630       7.978374       1.523227      -0.120000                    
       1.516031       9.235482       2.352363      -0.120000                    
       2.807341       9.971110       2.715979      -0.120000                    
       3.822887       9.046850       3.390828      -0.120000                    
       4.598108       8.081210       1.642946       0.060000                    
       4.723843       7.119479       3.142146       0.060000                    
       3.044359       6.244492       1.512951       0.060000                    
       2.359482       6.657597       3.109371       0.060000                    
       2.180059       8.278881       0.554458       0.060000                    
       0.851728       7.435934       1.399006       0.060000                    
       1.011402       8.944019       3.271114       0.060000                    
       0.885668       9.905751       1.771915       0.060000                    
       3.250033      10.367641       1.804687       0.060000                    
       2.565152      10.780737       3.401109       0.060000                    
       3.429458       8.746343       4.359598       0.060000                    
       4.757794       9.589299       3.515047       0.060000                    
      -2.961588      -4.399197       3.642239      -0.120000                    
      -2.237577      -5.133996       2.512269      -0.120000                    
      -0.811567      -5.525803       2.904750      -0.120000                    
      -0.008366      -4.328422       3.416766      -0.120000                    
      -0.732373      -3.593615       4.546732      -0.120000                    
      -2.158387      -3.201816       4.154254      -0.120000                    
      -3.114673      -5.093054       4.466142       0.060000                    
      -3.918244      -4.041476       3.267483       0.060000                    
      -2.793325      -6.038261       2.273401       0.060000                    
      -2.191859      -4.478920       1.644810       0.060000                    
      -0.861064      -6.273978       3.693047       0.060000                    
      -0.309454      -5.932574       2.029457       0.060000                    
       0.144723      -3.634557       2.592859       0.060000                    
       0.948290      -4.686142       3.791521       0.060000                    
      -0.778091      -4.248690       5.414192       0.060000                    
      -0.176634      -2.689358       4.785596       0.060000                    
      -2.108891      -2.453633       3.365946       0.060000                    
      -2.660501      -2.795045       5.029548       0.060000                    
       1.200668      -2.024967      -3.744383      -0.120000                    
       0.003069      -1.154102      -4.129344      -0.120000                    
       0.070671      -0.699346      -5.588670      -0.120000                    
       1.402006      -0.020275      -5.916465      -0.120000                    
       2.599618      -0.891145      -5.531500      -0.120000                    
       2.532013      -1.345887      -4.072173      -0.120000                    
       1.142239      -2.960391      -4.296852       0.060000                    
       1.162021      -2.215826      -2.674028       0.060000                    
      -0.907398      -1.732468      -3.987225       0.060000                    
      -0.005898      -0.273273      -3.490803       0.060000                    
      -0.042264      -1.570890      -6.230007       0.060000                    
      -0.734870       0.009238      -5.769701       0.060000                    
       1.460435       0.915148      -5.363997       0.060000                    
       1.440653       0.170584      -6.986820       0.060000                    
       2.608580      -1.771974      -6.170050       0.060000                    
       3.510085      -0.312779      -5.673619       0.060000                    
       2.644943      -0.474344      -3.430844       0.060000                    
       3.337560      -2.054476      -3.891148       0.060000                    
       5.477139      -5.181485       4.350156      -0.120000                    
       5.017910      -4.204010       5.433896      -0.120000                    
       3.920626      -3.264150       4.930273      -0.120000                    
       4.329028      -2.543261       3.644010      -0.120000                    
       4.788257      -3.520736       2.560271      -0.120000                    
       5.885550      -4.460587       3.063899      -0.120000                    
       4.657067      -5.859473       4.123304       0.060000                    
       6.334135      -5.737688       4.724093       0.060000                    
       4.628303      -4.774550       6.274281       0.060000                    
       5.871167      -3.606004       5.746949       0.060000                    
       3.025524      -3.849734       4.731434       0.060000                    
       3.721451      -2.519372       5.697983       0.060000                    
       5.149098      -1.865268       3.870876       0.060000                    
       3.472034      -1.987045       3.270083       0.060000                    
       3.934999      -4.118742       2.247217       0.060000                    
       5.177870      -2.950196       1.719894       0.060000                    
       6.780646      -3.875003       3.262730       0.060000                    
       6.084716      -5.205374       2.296183       0.060000                    
      -1.000278       9.441735      -2.691432      -0.120000                    
      -0.606202       8.652441      -1.441366      -0.120000                    
      -1.775815       8.501354      -0.466596      -0.120000                    
      -2.408694       9.849785      -0.117066      -0.120000                    
      -2.802765      10.639079      -1.367123      -0.120000                    
      -1.633156      10.790166      -2.341902      -0.120000                    
      -1.720355       8.856523      -3.259471       0.060000                    
      -0.106765       9.620670      -3.285690       0.060000                    
      -0.276845       7.661171      -1.745506       0.060000                    
       0.200708       9.179972      -0.937064       0.060000                    
      -2.533213       7.870787      -0.927412       0.060000                    
      -1.408403       8.042088       0.448751       0.060000                    
      -1.688617      10.434997       0.450974       0.060000                    
      -3.302207       9.670850       0.477192       0.060000                    
      -3.609674      10.111548      -1.871426       0.060000                    
      -3.132127      11.630349      -1.062992       0.060000                    
      -0.875754      11.420733      -1.881078       0.060000                    
      -2.000576      11.249437      -3.257244       0.060000                    
      -7.698666      -0.813619      -3.549807      -0.120000                    
      -6.538877      -1.325110      -2.692962      -0.120000                    
      -7.029000      -2.115889      -1.478282      -0.120000                    
      -8.046726      -1.326192      -0.652684      -0.120000                    
      -9.206504      -0.814697      -1.509536      -0.120000                    
      -8.716380      -0.023918      -2.724216      -0.120000                    
      -8.202343      -1.667240      -3.998478       0.060000                    
      -7.298306      -0.162163      -4.323666       0.060000                    
      -5.916244      -1.975849      -3.303308       0.060000                    
      -5.962560      -0.471439      -2.342574       0.060000                    
      -7.500353      -3.032259      -1.827108       0.060000                    
      -6.174133      -2.348085      -0.846652       0.060000                    
      -7.543037      -0.472568      -0.204021       0.060000                    
      -8.447082      -1.977639       0.121172       0.060000                    
      -9.782822      -1.668367      -1.859925       0.060000                    
      -9.829141      -0.163967      -0.899187       0.060000                    
      -8.245034       0.892457      -2.375386       0.060000                    
      -9.571252       0.208269      -3.355844       0.060000                    
       8.813462       5.110695      -1.664995      -0.120000                    
       8.337883       5.789389      -0.378891      -0.120000                    
       9.358222       5.651601       0.752881      -0.120000                    
       9.759529       4.194090       0.988666      -0.120000                    
      10.235107       3.515398      -0.297437      -0.120000                    
       9.214768       3.653186      -1.429209      -0.120000                    
       9.677341       5.652056      -2.044876       0.060000                    
       8.003588       5.135227      -2.391066       0.060000                    
       8.183249       6.847196      -0.580681       0.060000                    
       7.405521       5.324886      -0.064896       0.060000                    
      10.248309       6.219068       0.489568       0.060000                    
       8.917911       6.043217       1.667435       0.060000                    
       8.895649       3.652730       1.368549       0.060000                    
      10.569407       4.169568       1.714736       0.060000                    
      11.167474       3.979909      -0.611436       0.060000                    
      10.389746       2.457599      -0.095650       0.060000                    
       8.324668       3.085723      -1.165899       0.060000                    
       9.655079       3.261568      -2.343763       0.060000                    
      -5.759354      -5.369716       0.609966      -0.120000                    
      -6.760005      -5.209830       1.756275      -0.120000                    
      -7.398329      -6.543431       2.150012      -0.120000                    
      -8.014365      -7.261337       0.947479      -0.120000                    
      -7.013723      -7.421232      -0.198835      -0.120000                    
      -6.375396      -6.087616      -0.592563      -0.120000                    
      -4.912577      -5.952424       0.966364       0.060000                    
      -5.431382      -4.381583       0.294369       0.060000                    
      -6.236993      -4.806126       2.620611       0.060000                    
      -7.546402      -4.528294       1.438841       0.060000                    
      -6.630507      -7.182666       2.580665       0.060000                    
      -8.182417      -6.351607       2.879481       0.060000                    
      -8.861153      -6.678638       0.591076       0.060000                    
      -8.342349      -8.249464       1.263072       0.060000                    
      -6.227320      -8.102767       0.118607       0.060000                    
      -7.536726      -7.824928      -1.063166       0.060000                    
      -7.143215      -5.448395      -1.023218       0.060000                    
      -5.591313      -6.279449      -1.322029       0.060000                    
      -6.725444      -1.279384       3.380090      -0.120000                    
      -7.067455      -1.757716       4.792539      -0.120000                    
      -8.542047      -1.532107       5.132655      -0.120000                    
      -8.968609      -0.081300       4.899864      -0.120000                    
      -8.626596       0.397032       3.487415      -0.120000                    
      -7.152002       0.171432       3.147296      -0.120000                    
      -7.243292      -1.913285       2.663380       0.060000                    
      -5.649077      -1.352093       3.239453       0.060000                    
      -6.853971      -2.822367       4.860371       0.060000                    
      -6.458005      -1.204560       5.504075       0.060000                    
      -9.147439      -2.178223       4.500464       0.060000                    
      -8.698271      -1.776411       6.181270       0.060000                    
      -8.450759       0.552601       5.616574       0.060000                    
     -10.044970      -0.008582       5.040498       0.060000                    
      -9.236046      -0.156124       2.775879       0.060000                    
      -8.840080       1.461683       3.419583       0.060000                    
      -6.546614       0.817539       3.779490       0.060000                    
      -6.995777       0.415735       2.098681       0.060000                    
      -0.398163      -8.700592       0.747704      -0.120000                    
      -1.290803      -9.122871       1.916342      -0.120000                    
      -1.233851     -10.631474       2.165066      -0.120000                    
      -1.532748     -11.433297       0.896700      -0.120000                    
      -0.640094     -11.011023      -0.271935      -0.120000                    
      -0.697056      -9.502430      -0.520663      -0.120000                    
       0.640553      -8.865274       1.026388       0.060000                    
      -0.570930      -7.646476       0.541409       0.060000                    
      -0.953890      -8.609480       2.814419       0.060000                    
      -2.317868      -8.846912       1.686792       0.060000                    
      -0.235446     -10.889175       2.512104       0.060000                    
      -1.973700     -10.887428       2.920601       0.060000                    
      -2.571457     -11.268616       0.618025       0.060000                    
      -1.359980     -12.487412       1.102995       0.060000                    
       0.386963     -11.286976      -0.042379       0.060000                    
      -0.977013     -11.524415      -1.170020       0.060000                    
      -1.695464      -9.244714      -0.867700       0.060000                    
       0.042797      -9.246466      -1.276201       0.060000                    
       3.688838       2.995991      -7.421173      -0.120000                    
       3.042184       3.675604      -6.212527      -0.120000                    
       3.314457       5.181024      -6.187852      -0.120000                    
       4.808347       5.495200      -6.290729      -0.120000                    
       5.455006       4.815587      -7.499365      -0.120000                    
       5.182726       3.310172      -7.524035      -0.120000                    
       3.196081       3.350267      -8.324151       0.060000                    
       3.565964       1.919608      -7.321788       0.060000                    
       1.966804       3.517520      -6.258827       0.060000                    
       3.449838       3.233692      -5.305778       0.060000                    
       2.803631       5.640606      -7.031363       0.060000                    
       2.937452       5.587183      -5.251595       0.060000                    
       5.301102       5.140928      -5.387737       0.060000                    
       4.931213       6.571589      -6.390109       0.060000                    
       5.047352       5.257499      -8.406116       0.060000                    
       6.530386       4.973671      -7.453066       0.060000                    
       5.693548       2.850581      -6.680522       0.060000                    
       5.559735       2.904000      -8.460296       0.060000                    
      -3.391555      -2.840247      -7.556684      -0.120000                    
      -3.404469      -1.893641      -8.758622      -0.120000                    
      -3.166601      -0.439727      -8.345623      -0.120000                    