%nprocshared=4                                                                       
%mem=8GB                                                                             
#P pop=chelpg cam-b3lyp/gen scf=qc int=ultrafine charge td(nstates=10)               
                                                                                     
pNA CAM-B3LYP def2-TZVPD Single point - solvent def2-SV(P)                           
                                                                                     
0 1                                                                                  
 C       1.386341       0.000000       0.000000                                 
 C       0.000000       0.000000       0.000000                                 
 C      -0.712907       1.188984      -0.000000                                 
 C      -0.035635       2.384357       0.000131                                 
 C       1.365534       2.410943       0.000833                                 
 C       2.063239       1.195576       0.000133                                 
 H       1.918972      -0.938700       0.000854                                 
 H      -1.791888       1.163049       0.000837                                 
 H      -0.586620       3.315732      -0.002113                                 
 H       3.145392       1.202000      -0.002090                                 
 N      -0.713906      -1.260429       0.001744                                 
 O      -1.931758      -1.232720       0.002551                                 
 O      -0.063858      -2.290656       0.002518                                 
 N       2.037885       3.598040      -0.033161                                 
 H       1.540331       4.445798       0.174764                                 
 H       3.020819       3.607257       0.174736                                 
 C      -1.442080       6.008828      -0.405621                                 
 C      -0.754084       6.570875       0.840052                                 
 C      -1.749590       7.232084       1.795469                                 
 C      -2.608017       8.284489       1.090814                                 
 C      -3.296022       7.722446      -0.154860                                 
 C      -2.300516       7.061236      -1.110276                                 
 H      -2.082340       5.181830      -0.105914                                 
 H      -0.678106       5.662668      -1.098478                                 
 H      -0.260315       5.754452       1.362768                                 
 H      -0.024537       7.315344       0.528248                                 
 H      -2.404599       6.464033       2.201280                                 
 H      -1.194092       7.715862       2.596153                                 
 H      -1.967756       9.111486       0.791108                                 
 H      -3.372000       8.630653       1.783670                                 
 H      -4.025560       6.977973       0.156946                                 
 H      -3.789791       8.538869      -0.677576                                 
 H      -1.645507       7.829288      -1.516088                                 
 H      -2.856005       6.577454      -1.910959                                 
 C       2.681341       4.979271      -4.136357                                 
 C       1.480341       4.821201      -3.201737                                 
 C       0.808143       3.455681      -3.358305                                 
 C       0.443935       3.159560      -4.814567                                 
 C       1.644936       3.317631      -5.749188                                 
 C       2.317145       4.683156      -5.592615                                 
 H       3.458557       4.284864      -3.824259                                 
 H       3.041516       6.003633      -4.069449                                 
 H       1.823302       4.924082      -2.174450                                 
 H       0.753040       5.595639      -3.436140                                 
 H       1.495055       2.687875      -3.008674                                 
 H      -0.102731       3.446341      -2.763342                                 
 H      -0.333281       3.853968      -5.126666                                 
 H       0.083760       2.135198      -4.881475                                 
 H       2.372246       2.543189      -5.514783                                 
 H       1.301974       3.214749      -6.776475                                 
 H       1.630234       5.450963      -5.942246                                 
 H       3.228010       4.692500      -6.187580                                 
 C       4.189840      -2.199153       2.918827                                 
 C       3.483270      -3.532563       3.171154                                 
 C       1.977218      -3.440085       2.917510                                 
 C       1.333469      -2.293370       3.699588                                 
 C       2.040051      -0.959961       3.447252                                 
 C       3.546093      -1.052436       3.700894                                 
 H       4.132470      -1.970786       1.856629                                 
 H       5.228374      -2.291761       3.229330                                 
 H       3.903189      -4.280647       2.502131                                 
 H       3.644160      -3.820601       4.207895                                 
 H       1.813244      -3.271575       1.855288                                 
 H       1.514509      -4.374843       3.227150                                 
 H       1.390842      -2.521734       4.761775                                 
 H       0.294947      -2.200763       3.389076                                 
 H       1.879159      -0.671926       2.410520                                 
 H       1.620131      -0.211878       4.116275                                 
 H       3.710067      -1.220945       4.763115                                 
 H       4.008810      -0.117684       3.391266                                 
 C       6.480542       3.119180       1.084911                                 
 C       6.283642       1.616607       1.295346                                 
 C       6.935549       1.129061       2.590863                                 
 C       8.409060       1.531780       2.677999                                 
 C       8.605969       3.034349       2.467566                                 
 C       7.954064       3.521898       1.172039                                 
 H       5.928007       3.653479       1.854913                                 
 H       6.105446       3.384271       0.098687                                 
 H       5.216756       1.409052       1.343525                                 
 H       6.733817       1.086401       0.458732                                 
 H       6.404895       1.567403       3.433425                                 
 H       6.869076       0.043687       2.626427                                 
 H       8.961605       0.997479       1.907999                                 
 H       8.784168       1.266688       3.664215                                 
 H       8.155794       3.564557       3.304180                                 
 H       9.672857       3.241907       2.419378                                 
 H       8.484718       3.083555       0.329478                                 
 H       8.020535       4.607263       1.136473                                 
 C       1.100041       4.196799       3.648399                                 
 C       0.928359       5.462161       4.491200                                 
 C       2.075334       6.452260       4.278703                                 
 C       3.442688       5.800660       4.495135                                 
 C       3.614370       4.535297       3.652334                                 
 C       2.467395       3.545198       3.864831                                 
 H       1.004188       4.463072       2.597890                                 
 H       0.327173       3.484521       3.929170                                 
 H      -0.004551       5.944810       4.207747                                 
 H       0.903126       5.179580       5.541513                                 
 H       2.026450       6.827270       3.258614                                 
 H       1.964081       7.270401       4.987195                                 
 H       3.538543       5.534389       5.545634                                 
 H       4.215558       6.512939       4.214354                                 
 H       3.639603       4.817879       2.602021                                 
 H       4.547283       4.052658       3.935789                                 
 H       2.516283       3.170198       4.884923                                 
 H       2.578648       2.727057       3.156338                                 
 C      -0.679838      -0.987228      -5.967768                                 
 C      -1.261097      -0.391473      -4.683986                                 
 C      -0.490770      -0.844391      -3.442024                                 
 C      -0.372699      -2.367892      -3.364578                                 
 C       0.208551      -2.963636      -4.648348                                 
 C      -0.561767      -2.510721      -5.890308                                 
 H       0.311953      -0.569315      -6.127034                                 
 H      -1.334961      -0.731035      -6.797655                                 
 H      -1.208634       0.693202      -4.749222                                 
 H      -2.295671      -0.714171      -4.588260                                 
 H       0.510101      -0.419563      -3.479561                                 
 H      -1.017701      -0.491217      -2.558112                                 
 H      -1.364496      -2.785792      -3.205310                                 
 H       0.282427      -2.624076      -2.534688                                 
 H       1.243127      -2.640936      -4.744084                                 
 H       0.156098      -4.048314      -4.583111                                 
 H      -1.562635      -2.935547      -5.852782                                 
 H      -0.034836      -2.863896      -6.774221                                 
                                                                                
       4.721158       0.775526      -2.828373      -0.120000                    
       5.009375       0.352646      -4.270254      -0.120000                    
       6.502700       0.124337      -4.512907      -0.120000                    
       7.343224       1.331086      -4.090653      -0.120000                    
       7.055016       1.753955      -2.648783      -0.120000                    
       5.561682       1.982275      -2.406119      -0.120000                    
       4.953352      -0.057809      -2.168623       0.060000                    
       3.668839       1.039266      -2.747126       0.060000                    
       4.478388      -0.574909      -4.473336       0.060000                    
       4.664789       1.138869      -4.938657       0.060000                    
       6.820712      -0.740424      -3.934375       0.060000                    
       6.659116      -0.053844      -5.574763       0.060000                    
       7.111042       2.164419      -4.750412       0.060000                    
       8.395543       1.067346      -4.171900       0.060000                    
       7.399590       0.967734      -1.980371       0.060000                    
       7.585994       2.681521      -2.445691       0.060000                    
       5.243667       2.847027      -2.984654       0.060000                    
       5.405275       2.160453      -1.344262       0.060000                    
      -2.584393      -5.027254       1.479608      -0.120000                    
      -1.614098      -6.121780       1.030792      -0.120000                    
      -1.202507      -5.957486      -0.433679      -0.120000                    
      -2.414554      -5.850474      -1.361281      -0.120000                    
      -3.384846      -4.755946      -0.912475      -0.120000                    
      -3.796434      -4.920230       0.551999      -0.120000                    
      -2.059215      -4.074462       1.476740       0.060000                    
      -2.933971      -5.262420       2.482665       0.060000                    
      -0.721494      -6.070696       1.650622       0.060000                    
      -2.100736      -7.087628       1.148864       0.060000                    
      -0.610707      -5.049563      -0.528733       0.060000                    
      -0.614331      -6.823914      -0.728763       0.060000                    
      -2.939741      -6.803262      -1.358415       0.060000                    
      -2.064982      -5.615295      -2.364338       0.060000                    
      -2.898208      -3.790091      -1.030535       0.060000                    
      -4.277462      -4.807028      -1.532297       0.060000                    
      -4.388237      -5.828163       0.647050       0.060000                    
      -4.384610      -4.053803       0.847083       0.060000                    
      -4.614866       2.678488       2.448815      -0.120000                    
      -4.833459       2.580893       3.959989      -0.120000                    
      -5.429574       1.231786       4.366856      -0.120000                    
      -6.701945       0.906967       3.581633      -0.120000                    
      -6.483352       1.004563       2.070460      -0.120000                    
      -5.887234       2.353671       1.663583      -0.120000                    
      -3.839786       1.970458       2.163155       0.060000                    
      -4.306621       3.693398       2.206922       0.060000                    
      -3.874065       2.701660       4.458563       0.060000                    
      -5.518540       3.369546       4.263875       0.060000                    
      -4.693714       0.454070       4.173692       0.060000                    
      -5.674006       1.265107       5.426497       0.060000                    
      -7.477026       1.614998       3.867293       0.060000                    
      -7.010190      -0.107942       3.823527       0.060000                    
      -5.798269       0.215912       1.766563       0.060000                    
      -7.442743       0.883798       1.571875       0.060000                    
      -6.623097       3.131386       1.856756       0.060000                    
      -5.642803       2.320351       0.603942       0.060000                    
       5.017817       8.360862       1.163476      -0.120000                    
       6.459476       8.403728       0.652939      -0.120000                    
       6.527205       8.378549      -0.875395      -0.120000                    
       5.745300       7.202772      -1.464604      -0.120000                    
       4.303631       7.159907      -0.954060      -0.120000                    
       4.235909       7.185082       0.574276      -0.120000                    
       4.520790       9.286055       0.879597       0.060000                    
       5.035368       8.258864       2.246475       0.060000                    
       6.926467       9.320495       1.006552       0.060000                    
       6.990935       7.536359       1.038823       0.060000                    
       6.102942       9.304619      -1.257504       0.060000                    
       7.569049       8.288624      -1.175769       0.060000                    
       6.242331       6.277588      -1.180722       0.060000                    
       5.727741       7.304773      -2.547606       0.060000                    
       3.772184       8.027282      -1.339939       0.060000                    
       3.836644       6.243152      -1.307679       0.060000                    
       4.660176       6.259015       0.956376       0.060000                    
       3.194060       7.275014       0.874639       0.060000                    
       3.247864      -5.069911      -2.529883      -0.120000                    
       4.773670      -5.092114      -2.418639      -0.120000                    
       5.257500      -6.099037      -1.373184      -0.120000                    
       4.587026      -5.882295      -0.015080      -0.120000                    
       3.061220      -5.860091      -0.126324      -0.120000                    
       2.577381      -4.853165      -1.171780      -0.120000                    
       2.914820      -6.023633      -2.933788       0.060000                    
       2.959411      -4.257610      -3.193594       0.060000                    
       5.188808      -5.368298      -3.385567       0.060000                    
       5.115777      -4.100308      -2.130500       0.060000                    
       5.021321      -7.102323      -1.721392       0.060000                    
       6.332731      -5.985005      -1.252180       0.060000                    
       4.920070      -4.928572       0.388826       0.060000                    
       4.875475      -6.694580       0.648623       0.060000                    
       2.719104      -6.851893      -0.414465       0.060000                    
       2.646085      -5.583899       0.840607       0.060000                    
       2.813568      -3.849883      -0.823571       0.060000                    
       1.502159      -4.967200      -1.292783       0.060000                    
      -4.091438       3.580597      -3.964545      -0.120000                    
      -4.527168       2.658808      -2.823809      -0.120000                    
      -5.998468       2.256112      -2.942540      -0.120000                    
      -6.916543       3.472495      -3.078963      -0.120000                    
      -6.480815       4.394275      -4.219702      -0.120000                    
      -5.009515       4.796971      -4.100970      -0.120000                    
      -4.118587       3.018372      -4.895593       0.060000                    
      -3.080532       3.928828      -3.763368       0.060000                    
      -3.916999       1.758552      -2.851838       0.060000                    
      -4.384923       3.181835      -1.880470       0.060000                    
      -6.117528       1.630028      -3.824296       0.060000                    
      -6.281545       1.705549      -2.047819       0.060000                    
      -6.889396       4.034711      -2.147918       0.060000                    
      -7.927451       3.124255      -3.280142       0.060000                    
      -6.623069       3.871251      -5.163042       0.060000                    
      -7.090984       5.294530      -4.191672       0.060000                    
      -4.890456       5.423055      -3.219214       0.060000                    
      -4.726448       5.347538      -4.995693       0.060000                    
      -6.794637      -2.646960      -0.877187      -0.120000                    
      -8.312703      -2.827875      -0.937819      -0.120000                    
      -8.800076      -3.108166      -2.360818      -0.120000                    
      -8.308553      -2.052665      -3.353469      -0.120000                    
      -6.790489      -1.871752      -3.292827      -0.120000                    
      -6.303114      -1.591458      -1.869838      -0.120000                    
      -6.321430      -3.596819      -1.117007       0.060000                    
      -6.521816      -2.332643       0.127989       0.060000                    
      -8.588328      -3.668143      -0.304094       0.060000                    
      -8.786104      -1.915361      -0.581621       0.060000                    
      -8.423531      -4.080233      -2.672112       0.060000                    
      -9.888058      -3.106837      -2.362265       0.060000                    
      -8.781759      -1.102807      -3.113649       0.060000                    
      -8.581374      -2.366981      -4.358645       0.060000                    
      -6.317088      -2.784266      -3.649025       0.060000                    
      -6.514862      -1.031482      -3.926562       0.060000                    
      -6.679662      -0.619394      -1.558534       0.060000                    
      -5.215123      -1.592792      -1.868390       0.060000                    
       9.187186      -3.060093      -2.442495      -0.120000                    
       7.964500      -3.225919      -1.537833      -0.120000                    
       7.710639      -1.982150      -0.683662      -0.120000                    
       8.953924      -1.564111       0.104065      -0.120000                    
      10.176614      -1.398276      -0.800594      -0.120000                    
      10.430473      -2.642052      -1.654778      -0.120000                    
       8.970444      -2.292869      -3.182805       0.060000                    
       9.389022      -4.010512      -2.931960       0.060000                    
       7.091380      -3.402979      -2.162254       0.060000                    
       8.133587      -4.073193      -0.876587       0.060000                    
       7.422722      -1.163013      -1.339223       0.060000                    
       6.910478      -2.201210       0.020241       0.060000                    
       9.170667      -2.331336       0.844374       0.060000                    
       8.752089      -0.613692       0.593530       0.060000                    
      10.007525      -0.551012      -1.461843       0.060000                    
      11.049730      -1.221226      -0.176176       0.060000                    
      10.718389      -3.461191      -0.999208       0.060000                    
      11.230632      -2.422994      -2.358671       0.060000                    
      -0.906609      11.469392       2.452265      -0.120000                    
       0.244300      11.311019       1.456654      -0.120000                    
       1.186174      10.169917       1.846233      -0.120000                    
       1.687944      10.306619       3.285185      -0.120000                    
       0.537027      10.464995       4.280795      -0.120000                    
      -0.404847      11.606096       3.891215      -0.120000                    
      -1.544797      10.590549       2.388633       0.060000                    
      -1.469299      12.363896       2.193824       0.060000                    
      -0.172398      11.097915       0.474548       0.060000                    
       0.812950      12.238207       1.432216       0.060000                    
       0.648861       9.228518       1.753352       0.060000                    
       2.043483      10.182733       1.176447       0.060000                    
       2.326123      11.185465       3.348815       0.060000                    
       2.250635       9.412114       3.543626       0.060000                    
      -0.031615       9.537804       4.305234       0.060000                    
       0.953724      10.678099       5.262901       0.060000                    
       0.132471      12.547483       3.984096       0.060000                    
      -1.262157      11.593281       4.561001       0.060000                    
      -1.481377       1.506991       6.250507      -0.120000                    
      -0.061645       1.017895       5.957163      -0.120000                    
       0.845433       1.121727       7.184949      -0.120000                    
       0.836758       2.528385       7.786839      -0.120000                    
      -0.582976       3.017479       8.080194      -0.120000                    
      -1.490052       2.913648       6.852398      -0.120000                    
      -1.945441       0.823201       6.958158       0.060000                    
      -2.042704       1.524086       5.318764       0.060000                    
      -0.109820      -0.023933       5.647610       0.060000                    
       0.359145       1.628953       5.161384       0.060000                    
       0.493528       0.419330       7.937596       0.060000                    
       1.862885       0.877289       6.887133       0.060000                    
       1.300822       3.212174       7.079189       0.060000                    
       1.398086       2.511296       8.718596       0.060000                    
      -1.003760       2.406431       8.875965       0.060000                    
      -0.534799       4.059308       8.389737       0.060000                    
      -1.138147       3.616045       6.099751       0.060000                    
      -2.507501       3.158094       7.150217       0.060000                    
       4.793914       1.714260       5.934409      -0.120000                    
       4.528588       2.687763       7.084494      -0.120000                    
       5.794462       2.977787       7.893459      -0.120000                    
       6.474071       1.694146       8.374421      -0.120000                    
       6.739395       0.720633       7.224334      -0.120000                    
       5.473524       0.430619       6.415371      -0.120000                    
       5.443273       2.200916       5.209727       0.060000                    
       3.843578       1.452913       5.473818       0.060000                    
       4.159009       3.623264       6.669929       0.060000                    
       3.785496       2.249007       7.747028       0.060000                    
       6.492013       3.525358       7.263191       0.060000                    
       5.522911       3.573882       8.762169       0.060000                    
       5.824713       1.207489       9.099103       0.060000                    
       7.424407       1.955493       8.835011       0.060000                    
       7.482487       1.159390       6.561799       0.060000                    
       7.108976      -0.214858       7.638901       0.060000                    
       4.775970      -0.116961       7.045636       0.060000                    
       5.745072      -0.165485       5.546658       0.060000                    
       8.286587       7.116687       3.611458      -0.120000                    
       7.450473       6.248912       4.554223      -0.120000                    
       6.864340       7.060381       5.711368      -0.120000                    
       7.939885       7.849072       6.461161      -0.120000                    
       8.775997       8.716846       5.518405      -0.120000                    
       9.362144       7.905385       4.361255      -0.120000                    
       7.626162       7.820383       3.109179       0.060000                    
       8.773091       6.470526       2.883894       0.060000                    
       6.631979       5.809461       3.988104       0.060000                    
       8.087346       5.468131       4.964678       0.060000                    
       6.135341       7.761318       5.310287       0.060000                    
       6.385729       6.375899       6.408596       0.060000                    
       8.600319       7.145373       6.963441       0.060000                    
       7.453381       8.495241       7.188737       0.060000                    
       8.139136       9.497633       5.107954       0.060000                    
       9.594492       9.156299       6.084514       0.060000                    
      10.091131       7.204448       4.762344       0.060000                    
       9.840755       8.589866       3.664028       0.060000                    
      -6.923026      -5.383623       4.614731      -0.120000                    
      -6.818274      -4.663167       3.269062      -0.120000                    
      -7.718606      -3.427523       3.208899      -0.120000                    
      -9.168230      -3.756237       3.571638      -0.120000                    
      -9.272984      -4.476694       4.917316      -0.120000                    
      -8.372651      -5.712338       4.977479      -0.120000                    
      -6.508908      -4.739198       5.387315       0.060000                    
      -6.360019      -6.312690       4.556479       0.060000                    
      -5.787028      -4.349365       3.122030       0.060000                    
      -7.119231      -5.351238       2.481900       0.060000                    
      -7.342803      -2.688847       3.913678       0.060000                    
      -7.695265      -3.029327       2.196688       0.060000                    
      -9.582350      -4.400663       2.799064       0.060000                    
      -9.731236      -2.827170       3.629889       0.060000                    
      -8.972034      -3.788618       5.704466       0.060000                    
     -10.304227      -4.790495       5.064338       0.060000                    
      -8.748461      -6.451008       4.272690       0.060000                    
      -8.395993      -6.110534       5.989690       0.060000                    
      -1.906881      10.880706      -6.178786      -0.120000                    
      -3.016171       9.843635      -6.365550      -0.120000                    
      -3.067052       8.844120      -5.208223      -0.120000                    