%nprocshared=4                                                                       
%mem=8GB                                                                             
#P pop=chelpg cam-b3lyp/gen scf=qc int=ultrafine charge td(nstates=10)               
                                                                                     
pNA CAM-B3LYP def2-TZVPD Single point - solvent def2-SV(P)                           
                                                                                     
0 1                                                                                  
 C       1.386341       0.000000       0.000000                                 
 C       0.000000       0.000000       0.000000                                 
 C      -0.712907       1.188984      -0.000000                                 
 C      -0.035635       2.384357       0.000131                                 
 C       1.365534       2.410943       0.000833                                 
 C       2.063239       1.195576       0.000133                                 
 H       1.918972      -0.938700       0.000854                                 
 H      -1.791888       1.163049       0.000837                                 
 H      -0.586620       3.315732      -0.002113                                 
 H       3.145392       1.202000      -0.002090                                 
 N      -0.713906      -1.260429       0.001744                                 
 O      -1.931758      -1.232720       0.002551                                 
 O      -0.063858      -2.290656       0.002518                                 
 N       2.037885       3.598040      -0.033161                                 
 H       1.540331       4.445798       0.174764                                 
 H       3.020819       3.607257       0.174736                                 
 C      -1.235262       6.155383       2.306066                                 
 C      -0.083175       5.199169       2.621089                                 
 C      -0.581458       3.869949       3.192007                                 
 C      -1.503437       4.072802       4.396062                                 
 C      -2.655532       5.029022       4.081042                                 
 C      -2.157245       6.358243       3.510134                                 
 H      -1.818784       5.739046       1.487651                                 
 H      -0.819054       7.119158       2.020635                                 
 H       0.464141       4.999568       1.702297                                 
 H       0.568751       5.669750       3.354023                                 
 H      -1.133403       3.343476       2.416260                                 
 H       0.278552       3.282979       3.507630                                 
 H      -0.919912       4.489140       5.214488                                 
 H      -1.919650       3.109035       4.681504                                 
 H      -3.307445       4.558443       3.348104                                 
 H      -3.202840       5.228632       4.999840                                 
 H      -1.605295       6.884725       4.285877                                 
 H      -3.017243       6.945216       3.194506                                 
 C       3.226057       0.855863       3.746979                                 
 C       2.832485       2.185747       4.393085                                 
 C       3.127918       3.376610       3.479018                                 
 C       4.579496       3.381873       2.995366                                 
 C       4.973073       2.051997       2.349256                                 
 C       4.677640       0.861135       3.263324                                 
 H       2.575763       0.678249       2.893035                                 
 H       3.107650       0.063304       4.482777                                 
 H       1.765679       2.166775       4.605574                                 
 H       3.398638       2.305745       5.314358                                 
 H       2.472825       3.320489       2.612205                                 
 H       2.942750       4.294466       4.033063                                 
 H       5.229795       3.559496       3.849307                                 
 H       4.697896       4.174439       2.259570                                 
 H       4.406920       1.931999       1.427985                                 
 H       6.039874       2.070976       2.136779                                 
 H       5.332733       0.917256       4.130136                                 
 H       4.862803      -0.056729       2.709282                                 
 C       4.802147       4.716862      -2.097127                                 
 C       4.128892       6.065040      -1.832537                                 
 C       4.776377       7.196058      -2.634165                                 
 C       6.289675       7.258840      -2.417494                                 
 C       6.962930       5.910662      -2.682085                                 
 C       6.315445       4.779644      -1.880457                                 
 H       4.610279       4.428866      -3.128592                                 
 H       4.383628       3.979495      -1.415389                                 
 H       3.081437       5.992472      -2.117397                                 
 H       4.216697       6.295519      -0.772921                                 
 H       4.583237       7.027575      -3.691466                                 
 H       4.340256       8.140943      -2.316797                                 
 H       6.481548       7.546843      -1.386033                                 
 H       6.708194       7.996207      -3.099233                                 
 H       6.875126       5.680182      -3.741700                                 
 H       8.010386       5.983229      -2.397225                                 
 H       6.508585       4.948126      -0.823155                                 
 H       6.751566       3.834759      -2.197824                                 
 C       3.834065      -3.239537      -0.119993                                 
 C       4.134905      -4.732332      -0.268087                                 
 C       3.120174      -5.598507       0.480930                                 
 C       2.984437      -5.183961       1.947482                                 
 C       2.683598      -3.691167       2.095576                                 
 C       3.698329      -2.824991       1.346559                                 
 H       2.898810      -3.020927      -0.631077                                 
 H       4.649318      -2.674529      -0.566962                                 
 H       4.100222      -4.990933      -1.324256                                 
 H       5.125579      -4.929176       0.136252                                 
 H       2.150527      -5.493628      -0.001192                                 
 H       3.451064      -6.634247       0.441646                                 
 H       3.919693      -5.402572       2.458566                                 
 H       2.169185      -5.748969       2.394451                                 
 H       1.692928      -3.494336       1.691238                                 
 H       2.718289      -3.432571       3.151743                                 
 H       4.667975      -2.929870       1.828681                                 
 H       3.367439      -1.789251       1.385843                                 
 C      -3.957012       3.586951      -0.739432                                 
 C      -4.605779       4.791570      -0.054658                                 
 C      -5.909300       5.206881      -0.739795                                 
 C      -5.720817       5.433920      -2.241094                                 
 C      -5.072059       4.229307      -2.925866                                 
 C      -3.768540       3.813994      -2.240739                                 
 H      -4.597612       2.719218      -0.596777                                 
 H      -2.981962       3.414311      -0.288828                                 
 H      -4.824359       4.528394       0.978060                                 
 H      -3.911484       5.628356      -0.092023                                 
 H      -6.643975       4.417269      -0.597103                                 
 H      -6.258899       6.133463      -0.289276                                 
 H      -5.080217       6.301653      -2.383749                                 
 H      -6.695870       5.606559      -2.691707                                 
 H      -5.766350       3.392507      -2.888501                                 
 H      -4.853471       4.492477      -3.958586                                 
 H      -3.033866       4.603607      -2.383430                                 
 H      -3.418930       2.887408      -2.691250                                 
 C      -2.147944      -0.634104       3.934202                                 
 C      -3.059413      -1.710590       3.341453                                 
 C      -2.807384      -3.083541       3.967993                                 
 C      -1.331607      -3.481896       3.901471                                 
 C      -0.420137      -2.405410       4.494220                                 
 C      -0.672171      -1.032466       3.867683                                 
 H      -2.420602      -0.483017       4.976558                                 
 H      -2.285275       0.286507       3.370995                                 
 H      -4.094294      -1.429471       3.524737                                 
 H      -2.869952      -1.776360       2.272119                                 
 H      -3.111882      -3.050492       5.011945                                 
 H      -3.392292      -3.824900       3.427628                                 
 H      -1.058943      -3.632990       2.859103                                 
 H      -1.194279      -4.402514       4.464681                                 
 H      -0.609599      -2.339639       5.563553                                 
 H       0.614740      -2.686530       4.310926                                 
 H      -0.367673      -1.065516       2.823731                                 
 H      -0.087264      -0.291108       4.408047                                 
                                                                                
       0.837418       4.366205      -3.355236      -0.120000                    
       1.716319       4.389180      -4.607378      -0.120000                    
       0.950801       4.884943      -5.835873      -0.120000                    
      -0.344291       4.101418      -6.059040      -0.120000                    
      -1.223184       4.078438      -4.806899      -0.120000                    
      -0.457668       3.582688      -3.578405      -0.120000                    
       0.582946       5.390254      -3.090216       0.060000                    
       1.394253       3.894851      -2.548213       0.060000                    
       2.557483       5.055804      -4.429566       0.060000                    
       2.070070       3.379011      -4.802489       0.060000                    
       0.701838       5.933970      -5.690423       0.060000                    
       1.584664       4.765531      -6.712016       0.060000                    
      -0.089806       3.077372      -6.324065       0.060000                    
      -0.901113       4.572775      -6.866067       0.060000                    
      -1.576937       5.088620      -4.611790       0.060000                    
      -2.064342       3.411822      -4.984715       0.060000                    
      -0.208697       2.533656      -3.723857       0.060000                    
      -1.091536       3.702092      -2.702259       0.060000                    
      -1.984834      -5.308567      -4.390103      -0.120000                    
      -0.838419      -4.495889      -4.995262      -0.120000                    
       0.425303      -4.559042      -4.135003      -0.120000                    
       0.149782      -4.167317      -2.681849      -0.120000                    
      -0.996633      -4.979995      -2.076689      -0.120000                    
      -2.260355      -4.916842      -2.936948      -0.120000                    
      -1.717998      -6.362845      -4.421342       0.060000                    
      -2.884562      -5.129542      -4.974984       0.060000                    
      -0.609214      -4.897860      -5.979843       0.060000                    
      -1.152876      -3.457465      -5.075423       0.060000                    
       0.808303      -5.577171      -4.154005       0.060000                    
       1.160946      -3.871418      -4.546896       0.060000                    
      -0.117059      -3.113046      -2.650606       0.060000                    
       1.049510      -4.346341      -2.096967       0.060000                    
      -0.682182      -6.018427      -1.996525       0.060000                    
      -1.225847      -4.578033      -1.092114       0.060000                    
      -2.643356      -3.898712      -2.917946       0.060000                    
      -2.995999      -5.604466      -2.525055       0.060000                    
       5.288097      -1.263649      -3.606283      -0.120000                    
       3.782600      -1.300245      -3.336105      -0.120000                    
       2.965932      -1.161095      -4.622454      -0.120000                    
       3.373492       0.073194      -5.429600      -0.120000                    
       4.879002       0.109793      -5.699782      -0.120000                    
       5.695670      -0.029358      -4.413433      -0.120000                    
       5.562013      -2.153298      -4.169429       0.060000                    
       5.812058      -1.244251      -2.653049       0.060000                    
       3.536185      -2.251433      -2.869015       0.060000                    
       3.528373      -0.476727      -2.672116       0.060000                    
       3.127907      -2.045836      -5.234531       0.060000                    
       1.914139      -1.072218      -4.358610       0.060000                    
       3.099581       0.962850      -4.866456       0.060000                    
       2.849535       0.053803      -6.382837       0.060000                    
       5.133232      -0.713724      -6.363762       0.060000                    
       5.125416       1.060980      -6.166873       0.060000                    
       5.533681       0.855381      -3.801352       0.060000                    
       6.747453      -0.118235      -4.677263       0.060000                    
       7.685668       1.418465      -0.426305      -0.120000                    
       7.193823       0.004219      -0.111734      -0.120000                    
       8.266305      -1.050802      -0.390537      -0.120000                    
       8.823353      -0.940520      -1.811279      -0.120000                    
       9.315210       0.473701      -2.125829      -0.120000                    
       8.242744       1.528738      -1.847055      -0.120000                    
       8.474225       1.676880       0.277321       0.060000                    
       6.849844       2.107598      -0.326132       0.060000                    
       6.924142      -0.043972       0.941087       0.060000                    
       6.326778      -0.208686      -0.733513       0.060000                    
       9.082789      -0.911415       0.314837       0.060000                    
       7.824325      -2.037138      -0.265998       0.060000                    
       8.034816      -1.198954      -2.514919       0.060000                    
       9.659201      -1.629671      -1.911458       0.060000                    
      10.182266       0.686615      -1.504076       0.060000                    
       9.584902       0.521900      -3.178677       0.060000                    
       7.426260       1.389351      -2.552429       0.060000                    
       8.684720       2.515066      -1.971591       0.060000                    
       2.171275      10.035311       0.623686      -0.120000                    
       2.034264       8.575965       1.062308      -0.120000                    
       2.424801       8.379126       2.528521      -0.120000                    
       3.815448       8.940518       2.831723      -0.120000                    
       3.952471      10.399867       2.393095      -0.120000                    
       3.561934      10.596701       0.926895      -0.120000                    
       1.432536      10.629588       1.157322       0.060000                    
       1.999121      10.093616      -0.448921       0.060000                    
       0.998017       8.270328       0.934532       0.060000                    
       2.687215       7.964122       0.443485       0.060000                    
       1.698266       8.893543       3.153924       0.060000                    
       2.424527       7.313576       2.748318       0.060000                    
       4.554194       8.346236       2.298085       0.060000                    
       3.987605       8.882215       3.904339       0.060000                    
       3.299515      11.011718       3.011930       0.060000                    
       4.988710      10.705504       2.520885       0.060000                    
       4.288473      10.082291       0.301489       0.060000                    
       3.562201      11.662262       0.707088       0.060000                    
      -5.818536      -0.811791      -5.865623      -0.120000                    
      -4.808471      -1.007855      -4.733254      -0.120000                    
      -5.481671      -1.465267      -3.437647      -0.120000                    
      -6.628039      -0.538037      -3.028909      -0.120000                    
      -7.638092      -0.341969      -4.161283      -0.120000                    
      -6.964896       0.115434      -5.456886      -0.120000                    
      -6.233880      -1.781212      -6.132778       0.060000                    
      -5.304215      -0.373678      -6.718307       0.060000                    
      -4.088317      -1.764729      -5.036860       0.060000                    
      -4.305469      -0.061074      -4.548199       0.060000                    
      -5.880735      -2.466167      -3.587789       0.060000                    
      -4.738634      -1.470590      -2.642952       0.060000                    
      -6.212683       0.431387      -2.761760       0.060000                    
      -7.142353      -0.976155      -2.176229       0.060000                    
      -8.141101      -1.288761      -4.346345       0.060000                    
      -8.358251       0.414896      -3.857674       0.060000                    
      -6.565836       1.116333      -5.306755       0.060000                    
      -7.707938       0.120756      -6.251592       0.060000                    
      -5.964307      -3.873390      -0.411301      -0.120000                    
      -7.033098      -3.537354       0.630651      -0.120000                    
      -7.416164      -4.756263       1.472382      -0.120000                    
      -7.818182      -5.949653       0.603364      -0.120000                    
      -6.749397      -6.285697      -0.438585      -0.120000                    
      -6.366331      -5.066789      -1.280317      -0.120000                    
      -5.038590      -4.116261       0.106059       0.060000                    
      -5.821263      -3.007605      -1.054349       0.060000                    
      -6.643538      -2.766541       1.292214       0.060000                    
      -7.921043      -3.178274       0.114604       0.060000                    
      -6.560392      -5.041628       2.080534       0.060000                    
      -8.258237      -4.489396       2.107513       0.060000                    
      -8.743900      -5.706782       0.086004       0.060000                    
      -7.961226      -6.815438       1.246412       0.060000                    
      -5.861447      -6.644770       0.077459       0.060000                    
      -7.138952      -7.056503      -1.100152       0.060000                    
      -7.222094      -4.781414      -1.888463       0.060000                    
      -5.524259      -5.333655      -1.915448       0.060000                    
      -0.843931       9.898478      -4.498673      -0.120000                    
       0.427936       9.239973      -3.960457      -0.120000                    
       0.119101       8.001928      -3.116144      -0.120000                    
      -0.885429       8.303655      -2.002208      -0.120000                    
      -2.157293       8.962161      -2.540415      -0.120000                    
      -1.848457      10.200205      -3.384728      -0.120000                    
      -1.309579       9.222937      -5.213140       0.060000                    
      -0.572597      10.833190      -4.984675       0.060000                    
       1.047668       8.940457      -4.802958       0.060000                    
       0.956889       9.960589      -3.340276       0.060000                    
      -0.300092       7.235018      -3.764008       0.060000                    
       1.044025       7.649810      -2.664157       0.060000                    
      -0.419777       8.979198      -1.287732       0.060000                    
      -1.156765       7.368936      -1.516194       0.060000                    
      -2.686251       8.241535      -3.160592       0.060000                    
      -2.777025       9.261676      -1.697914       0.060000                    
      -1.429265      10.967115      -2.736864       0.060000                    
      -2.773382      10.552323      -3.836714       0.060000                    
      -7.666111       0.361442       1.591736      -0.120000                    
      -8.676541       1.267096       2.298560      -0.120000                    
      -9.864400       1.612638       1.398228      -0.120000                    
      -9.416161       2.192661       0.055222      -0.120000                    
      -8.405731       1.287008      -0.651602      -0.120000                    
      -7.217872       0.941466       0.248730      -0.120000                    
      -8.130757      -0.606273       1.414797       0.060000                    
      -6.792859       0.249491       2.230882       0.060000                    
      -9.048011       0.751111       3.181412       0.060000                    
      -8.176249       2.190223       2.583563       0.060000                    
     -10.435013       0.705258       1.212012       0.060000                    
     -10.482810       2.349686       1.906202       0.060000                    
      -8.951514       3.160376       0.232161       0.060000                    
     -10.289424       2.304617      -0.583931       0.060000                    
      -8.906027       0.363879      -0.936614       0.060000                    
      -8.034261       1.802993      -1.534454       0.060000                    
      -6.647260       1.848846       0.434946       0.060000                    
      -6.599474       0.204422      -0.259252       0.060000                    
      10.039969       4.262189       1.616274      -0.120000                    
      10.599685       4.896993       0.341666      -0.120000                    
      10.657608       6.422815       0.439104      -0.120000                    
       9.306876       7.023804       0.833168      -0.120000                    
       8.747152       6.389004       2.107778      -0.120000                    
       8.689229       4.863182       2.010339      -0.120000                    
      10.745330       4.430652       2.427296       0.060000                    
       9.909366       3.195728       1.445166       0.060000                    
      11.607395       4.520489       0.179337       0.060000                    
       9.956607       4.626080      -0.493028       0.060000                    
      11.392766       6.695396       1.193341       0.060000                    
      10.946165       6.822362      -0.530809       0.060000                    
       8.601507       6.855346       0.022149       0.060000                    
       9.437466       8.090261       1.004281       0.060000                    
       9.390229       6.659918       2.942472       0.060000                    
       7.739442       6.765508       2.270107       0.060000                    
       7.954066       4.590593       1.256106       0.060000                    
       8.400672       4.463636       2.980253       0.060000                    
       4.132590       6.999194       7.942010      -0.120000                    
       3.315964       6.065982       7.045834      -0.120000                    
       2.482122       6.839136       6.022150      -0.120000                    
       1.609188       7.907685       6.683352      -0.120000                    
       2.425811       8.840896       7.579518      -0.120000                    
       3.259661       8.067737       8.603203      -0.120000                    
       4.886575       7.493962       7.333364       0.060000                    
       4.606419       6.406177       8.721383       0.060000                    
       4.000110       5.409535       6.512361       0.060000                    
       2.644220       5.482515       7.671923       0.060000                    
       3.156514       7.326156       5.320975       0.060000                    
       1.836048       6.137416       5.498806       0.060000                    
       0.855207       7.412910       7.291986       0.060000                    
       1.135354       8.500695       5.903983       0.060000                    
       3.097561       9.424350       6.953439       0.060000                    
       1.741673       9.497337       8.112990       0.060000                    
       2.585269       7.580717       9.304377       0.060000                    
       3.905729       8.769448       9.126549       0.060000                    
       5.130115      -4.795145       7.750318      -0.120000                    
       4.377508      -3.475470       7.931724      -0.120000                    
       4.082343      -2.795415       6.593291      -0.120000                    
       5.345217      -2.623317       5.746840      -0.120000                    
       6.097816      -3.942987       5.565436      -0.120000                    
       6.392985      -4.623040       6.903879      -0.120000                    
       4.472414      -5.504987       7.253108       0.060000                    
       5.417034      -5.169408       8.730755       0.060000                    
       3.434078      -3.679383       8.433622       0.060000                    
       4.988617      -2.806673       8.534162       0.060000                    
       3.374110      -3.408855       6.040348       0.060000                    
       3.658224      -1.812734       6.788723       0.060000                    
       6.002905      -1.913478       6.244055       0.060000                    
       5.058289      -2.249055       4.766417       0.060000                    
       5.486719      -4.611788       4.963006       0.060000                    
       7.041254      -3.739087       5.063548       0.060000                    
       7.101226      -4.009606       7.456820       0.060000                    
       6.817108      -5.605736       6.708448       0.060000                    
      -0.746305      -8.692266       1.242603      -0.120000                    
      -0.631479      -9.894304       2.182160      -0.120000                    
       0.672785     -10.665433       1.969476      -0.120000                    
       0.872352     -11.061483       0.505127      -0.120000                    
       0.757533      -9.859449      -0.434433      -0.120000                    
      -0.546734      -9.088306      -0.221750      -0.120000                    
       0.016616      -7.965315       1.513192       0.060000                    
      -1.737578      -8.257880       1.353274       0.060000                    
      -0.660463      -9.536800       3.209288       0.060000                    
      -1.466817     -10.565032       1.992360       0.060000                    
       1.504056     -10.033607       2.275149       0.060000                    
       0.644326     -11.569921       2.573480       0.060000                    
       0.109435     -11.788431       0.234546       0.060000                    
       1.863624     -11.495868       0.394455       0.060000                    
       1.592869      -9.188708      -0.244634       0.060000                    
       0.786526     -10.216944      -1.461554       0.060000                    
      -1.378009      -9.720141      -0.527419       0.060000                    
      -0.518275      -8.183819      -0.825754       0.060000                    
      -2.689909      10.067980       1.257740      -0.120000                    
      -2.457968      11.352403       0.459389      -0.120000                    
      -3.229417      12.537533       1.043668      -0.120000                    