%nprocshared=4                                                                       
%mem=8GB                                                                             
#P pop=chelpg cam-b3lyp/gen scf=qc int=ultrafine charge td(nstates=10)               
                                                                                     
pNA CAM-B3LYP def2-TZVPD Single point - solvent def2-SV(P)                           
                                                                                     
0 1                                                                                  
 C       1.386341       0.000000       0.000000                                 
 C       0.000000       0.000000       0.000000                                 
 C      -0.712907       1.188984      -0.000000                                 
 C      -0.035635       2.384357       0.000131                                 
 C       1.365534       2.410943       0.000833                                 
 C       2.063239       1.195576       0.000133                                 
 H       1.918972      -0.938700       0.000854                                 
 H      -1.791888       1.163049       0.000837                                 
 H      -0.586620       3.315732      -0.002113                                 
 H       3.145392       1.202000      -0.002090                                 
 N      -0.713906      -1.260429       0.001744                                 
 O      -1.931758      -1.232720       0.002551                                 
 O      -0.063858      -2.290656       0.002518                                 
 N       2.037885       3.598040      -0.033161                                 
 H       1.540331       4.445798       0.174764                                 
 H       3.020819       3.607257       0.174736                                 
 C      -4.692128       3.520503       2.738842                                 
 C      -4.299008       2.443207       1.726025                                 
 C      -3.842618       3.046294       0.395973                                 
 C      -4.874207       4.021071      -0.175534                                 
 C      -5.267327       5.098367       0.837283                                 
 C      -5.723707       4.495289       2.167339                                 
 H      -3.800827       4.079972       3.014972                                 
 H      -5.119485       3.035624       3.613953                                 
 H      -3.481410       1.857630       2.140983                                 
 H      -5.162608       1.807755       1.541466                                 
 H      -2.910372       3.582839       0.559185                                 
 H      -3.693525       2.239505      -0.318587                                 
 H      -5.765502       3.461609      -0.451668                                 
 H      -4.446849       4.505950      -1.050645                                 
 H      -4.403720       5.733826       1.021838                                 
 H      -6.084921       5.683946       0.422334                                 
 H      -6.655956       3.958742       2.004118                                 
 H      -5.872804       5.302076       2.881891                                 
 C       2.176222       6.804782      -2.849615                                 
 C       3.041817       7.250185      -4.029974                                 
 C       4.303452       6.395967      -4.169974                                 
 C       5.101096       6.333409      -2.865778                                 
 C       4.235497       5.888005      -1.685429                                 
 C       2.973863       6.742223      -1.545428                                 
 H       1.780498       5.814057      -3.062966                                 
 H       1.363384       7.517262      -2.726156                                 
 H       2.457578       7.159713      -4.943263                                 
 H       3.338367       8.285079      -3.872696                                 
 H       4.010228       5.385571      -4.447005                                 
 H       4.933950       6.831100      -4.942567                                 
 H       5.496817       7.324132      -2.652436                                 
 H       5.913931       5.620927      -2.989246                                 
 H       3.938947       4.853111      -1.842706                                 
 H       4.819737       5.978478      -0.772140                                 
 H       3.267091       7.752622      -1.268388                                 
 H       2.343364       6.307091      -0.772835                                 
 C      -2.489193      -3.448662       2.565164                                 
 C      -3.422291      -3.770331       3.734208                                 
 C      -2.684531      -3.764816       5.074609                                 
 C      -1.454646      -4.674784       5.055809                                 
 C      -0.521558      -4.353123       3.886759                                 
 C      -1.259318      -4.358638       2.546358                                 
 H      -2.156918      -2.416956       2.659189                                 
 H      -3.037033      -3.585360       1.635221                                 
 H      -4.209401      -3.020002       3.767523                                 
 H      -3.849357      -4.758464       3.576506                                 
 H      -2.361714      -2.748353       5.289601                                 
 H      -3.365040      -4.116020       5.847435                                 
 H      -1.786925      -5.706491       4.961774                                 
 H      -0.906810      -4.538087       5.985742                                 
 H      -0.094492      -3.364990       4.044461                                 
 H       0.265564      -5.103452       3.853438                                 
 H      -1.582129      -5.375094       2.331361                                 
 H      -0.578803      -4.007427       1.773528                                 
 C      -4.921260      -0.984498      -1.786562                                 
 C      -5.692447      -0.768233      -0.482953                                 
 C      -5.324273      -1.805766       0.579581                                 
 C      -5.469897      -3.236811       0.058179                                 
 C      -4.698721      -3.453071      -1.245437                                 
 C      -5.066888      -2.415545      -2.307973                                 
 H      -3.867143      -0.786623      -1.603888                                 
 H      -5.309099      -0.299642      -2.537703                                 
 H      -5.455564       0.221756      -0.098968                                 
 H      -6.757270      -0.847173      -0.691684                                 
 H      -4.289608      -1.647447       0.876315                                 
 H      -5.985603      -1.678074       1.434003                                 
 H      -6.524018      -3.434687      -0.124503                                 
 H      -5.082064      -3.921655       0.809309                                 
 H      -3.633885      -3.374131      -1.036711                                 
 H      -4.935605      -4.443060      -1.629422                                 
 H      -6.101560      -2.573857      -2.604705                                 
 H      -4.405559      -2.543222      -3.162397                                 
 C       0.701528      -4.159815      -5.339088                                 
 C       1.106177      -2.706979      -5.081333                                 
 C       0.664366      -2.225886      -3.697726                                 
 C      -0.829742      -2.455264      -3.461085                                 
 C      -1.234388      -3.908109      -3.718850                                 
 C      -0.792577      -4.389201      -5.102458                                 
 H       1.263078      -4.802159      -4.664018                                 
 H       0.931592      -4.406551      -6.373380                                 
 H       2.189537      -2.631024      -5.146276                                 
 H       0.637889      -2.076764      -5.834451                                 
 H       1.224144      -2.774981      -2.943578                                 
 H       0.869354      -1.160346      -3.618383                                 
 H      -1.391289      -1.812928      -4.136166                                 
 H      -1.059810      -2.208529      -2.426802                                 
 H      -0.766101      -4.538323      -2.965733                                 
 H      -2.317744      -3.984063      -3.653898                                 
 H      -1.352355      -3.840106      -5.856606                                 
 H      -0.997561      -5.454740      -5.181792                                 
 C       0.397212       7.144922       1.669800                                 
 C      -0.338220       6.163049       2.584097                                 
 C      -1.856453       6.337295       2.508976                                 
 C      -2.280642       7.785122       2.763563                                 
 C      -1.545210       8.766994       1.849266                                 
 C      -0.026977       8.592749       1.924386                                 
 H       0.171245       6.893145       0.635770                                 
 H       1.465867       7.058160       1.854401                                 
 H      -0.089047       5.149319       2.277740                                 
 H      -0.018693       6.336714       3.609455                                 
 H      -2.191037       6.046565       1.515432                                 
 H      -2.316969       5.702398       3.263022                                 
 H      -2.054675       8.036899       3.797593                                 
 H      -3.349301       7.871882       2.578953                                 
 H      -1.864737       8.593330       0.823908                                 
 H      -1.794389       9.780718       2.155627                                 
 H       0.307607       8.883479       2.917931                                 
 H       0.433539       9.227646       1.170341                                 
                                                                                
      -1.897107       0.126940       3.816198      -0.120000                    
      -2.164222       1.424264       4.582036      -0.120000                    
      -1.149203       2.514824       4.233546      -0.120000                    
       0.292481       2.032984       4.407641      -0.120000                    
       0.559601       0.735667       3.641799      -0.120000                    
      -0.455417      -0.354894       3.990290      -0.120000                    
      -2.079139       0.303915       2.758274       0.060000                    
      -2.568527      -0.642631       4.191025       0.060000                    
      -3.159514       1.780861       4.325486       0.060000                    
      -2.100512       1.217972       5.648353       0.060000                    
      -1.295254       2.806903       3.195778       0.060000                    
      -1.313307       3.365559       4.891630       0.060000                    
       0.474518       1.856016       5.465561       0.060000                    
       0.963901       2.802554       4.032815       0.060000                    
       0.495886       0.941951       2.575486       0.060000                    
       1.554894       0.379069       3.898349       0.060000                    
      -0.309372      -0.646980       5.028061       0.060000                    
      -0.291319      -1.205635       3.332209       0.060000                    
       0.195047       2.183820      -3.747924      -0.120000                    
       0.450319       3.235996      -4.828944      -0.120000                    
      -0.653690       4.294499      -4.870492      -0.120000                    
      -2.043900       3.668222      -4.997250      -0.120000                    
      -2.299172       2.616046      -3.916230      -0.120000                    
      -1.195160       1.557544      -3.874673      -0.120000                    
       0.274023       2.660550      -2.773159       0.060000                    
       0.940701       1.397619      -3.844977       0.060000                    
       1.396831       3.728993      -4.617680       0.060000                    
       0.491485       2.738462      -5.795603       0.060000                    
      -0.615567       4.872962      -3.949873       0.060000                    
      -0.483819       4.940468      -5.729316       0.060000                    
      -2.122876       3.191492      -5.972015       0.060000                    
      -2.789547       4.454429      -4.900201       0.060000                    
      -2.340339       3.113580      -2.949571       0.060000                    
      -3.245667       2.123050      -4.127491       0.060000                    
      -1.233282       0.979081      -4.795291       0.060000                    
      -1.365030       0.911575      -3.015849       0.060000                    
       2.640896       5.206962       4.851726      -0.120000                    
       3.220334       4.679737       3.537483      -0.120000                    
       4.645002       5.182944       3.296558      -0.120000                    
       4.738847       6.707002       3.393675      -0.120000                    
       4.159419       7.234236       4.707923      -0.120000                    
       2.734733       6.731027       4.948845      -0.120000                    
       3.199111       4.770975       5.677557       0.060000                    
       1.593504       4.918703       4.910389       0.060000                    
       3.237475       3.592643       3.576409       0.060000                    
       2.588967       5.018084       2.718608       0.060000                    
       5.299799       4.745720       4.047380       0.060000                    
       4.957439       4.878208       2.299938       0.060000                    
       4.180628       7.142997       2.567854       0.060000                    
       5.786232       6.995267       3.335014       0.060000                    
       4.790786       6.895888       5.526798       0.060000                    
       4.142272       8.321323       4.669001       0.060000                    
       2.079947       7.168245       4.198030       0.060000                    
       2.422300       7.035764       5.945474       0.060000                    
       8.088962      -0.017911       1.406063      -0.120000                    
       7.165524      -0.664575       2.440452      -0.120000                    
       5.745877      -0.097716       2.375171      -0.120000                    
       5.733312       1.429278       2.470889      -0.120000                    
       6.656751       2.075942       1.436500      -0.120000                    
       8.076397       1.509083       1.501781      -0.120000                    
       7.753853      -0.306684       0.412068       0.060000                    
       9.104178      -0.368737       1.578758       0.060000                    
       7.121973      -1.734323       2.247101       0.060000                    
       7.569596      -0.476655       3.432984       0.060000                    
       5.297851      -0.390392       1.427927       0.060000                    
       5.171244      -0.502833       3.205491       0.060000                    
       6.068421       1.718051       3.464884       0.060000                    
       4.718105       1.780112       2.298200       0.060000                    
       6.252678       1.888022       0.443968       0.060000                    
       6.700308       3.145683       1.629850       0.060000                    
       8.524424       1.801759       2.449025       0.060000                    
       8.651031       1.914200       0.671462       0.060000                    
       4.806219      -5.584517      -2.813141      -0.120000                    
       4.627088      -4.065048      -2.808803      -0.120000                    
       4.277353      -3.533166      -1.417473      -0.120000                    
       3.069942      -4.254282      -0.814854      -0.120000                    
       3.249070      -5.773756      -0.819180      -0.120000                    
       3.598799      -6.305631      -2.210508      -0.120000                    
       5.687860      -5.832344      -2.225873       0.060000                    
       4.932045      -5.916855      -3.841385       0.060000                    
       5.557668      -3.604298      -3.133340       0.060000                    
       3.820405      -3.808080      -3.492114       0.060000                    
       5.133562      -3.682117      -0.763007       0.060000                    
       4.044420      -2.473531      -1.498823       0.060000                    
       2.188287      -4.006455      -1.402117       0.060000                    
       2.944112      -3.921935       0.213400       0.060000                    
       4.055759      -6.030716      -0.135872       0.060000                    
       2.318485      -6.234493      -0.494654       0.060000                    
       2.742599      -6.156682      -2.864988       0.060000                    
       3.831737      -7.365258      -2.129162       0.060000                    
       5.464311       2.447368      -4.061165      -0.120000                    
       5.282946       2.172211      -5.555268      -0.120000                    
       3.972296       1.439034      -5.848001      -0.120000                    
       3.826913       0.167641      -5.009295      -0.120000                    
       4.008274       0.442797      -3.515202      -0.120000                    
       5.318923       1.175974      -3.222468      -0.120000                    
       4.706722       3.161185      -3.744615       0.060000                    
       6.459301       2.857382      -3.901363       0.060000                    
       5.275806       3.122186      -6.085379       0.060000                    
       6.110668       1.554944      -5.898079       0.060000                    
       3.142829       2.104277      -5.617619       0.060000                    
       3.954960       1.164900      -6.900734       0.060000                    
       4.584498      -0.546178      -5.325854       0.060000                    
       2.831915      -0.242366      -5.169096       0.060000                    
       3.180558       1.060071      -3.172394       0.060000                    
       4.015413      -0.507164      -2.985092       0.060000                    
       6.148401       0.510739      -3.452846       0.060000                    
       5.336261       1.450108      -2.169736       0.060000                    
      -1.148184      -9.007014      -1.690860      -0.120000                    
      -0.353518      -7.757761      -1.305161      -0.120000                    
      -1.073215      -6.926532      -0.241167      -0.120000                    
      -2.508183      -6.589048      -0.651082      -0.120000                    
      -3.302843      -7.838295      -1.036785      -0.120000                    
      -2.583152      -8.669530      -2.100776      -0.120000                    
      -1.179755      -9.677184      -0.834393       0.060000                    
      -0.651430      -9.489842      -2.529705       0.060000                    
       0.611543      -8.067829      -0.910077       0.060000                    
      -0.218152      -7.143887      -2.193129       0.060000                    
      -1.101135      -7.496412       0.685132       0.060000                    
      -0.525457      -5.997677      -0.096394       0.060000                    
      -2.476605      -5.918870      -1.507553       0.060000                    
      -3.004937      -6.106220       0.187762       0.060000                    
      -3.438215      -8.452175      -0.148813       0.060000                    
      -4.267910      -7.528233      -1.431865       0.060000                    
      -2.555228      -8.099648      -3.027066       0.060000                    
      -3.130900      -9.598376      -2.245543       0.060000                    
      -3.049814       7.757456      -2.404638      -0.120000                    
      -3.935433       9.005054      -2.398812      -0.120000                    
      -3.917160       9.727147      -3.747620      -0.120000                    
      -2.492887      10.037510      -4.212471      -0.120000                    
      -1.607272       8.789910      -4.218305      -0.120000                    
      -1.625539       8.067823      -2.869501      -0.120000                    
      -3.484794       7.025456      -3.081838       0.060000                    
      -3.006188       7.357319      -1.393929       0.060000                    
      -4.957726       8.704746      -2.179072       0.060000                    
      -3.569930       9.687344      -1.634236       0.060000                    
      -4.393972       9.090084      -4.489520       0.060000                    
      -4.462175      10.663503      -3.648066       0.060000                    
      -2.057907      10.769508      -3.535270       0.060000                    
      -2.536500      10.437646      -5.223186       0.060000                    
      -1.972772       8.107621      -4.982873       0.060000                    
      -0.584963       9.090219      -4.438043       0.060000                    
      -1.148727       8.704887      -2.127602       0.060000                    
      -1.080527       7.131463      -2.969042       0.060000                    
      -6.589991       2.306026      -3.086542      -0.120000                    
      -6.533148       3.731647      -3.639071      -0.120000                    
      -7.840502       4.490515      -3.402562      -0.120000                    
      -9.053624       3.720223      -3.927919      -0.120000                    
      -9.110477       2.294607      -3.375397      -0.120000                    
      -7.803120       1.535740      -3.611897      -0.120000                    
      -6.653066       2.355914      -2.001537       0.060000                    
      -5.686786       1.779909      -3.388227       0.060000                    
      -5.726359       4.265497      -3.141411       0.060000                    
      -6.348670       3.682333      -4.710159       0.060000                    
      -7.963800       4.645721      -2.332807       0.060000                    
      -7.785671       5.446713      -3.918716       0.060000                    
      -8.990562       3.670334      -5.012918       0.060000                    
      -9.956836       4.246333      -3.626230       0.060000                    
      -9.294952       2.343922      -2.304300       0.060000                    
      -9.917256       1.760751      -3.873049       0.060000                    
      -7.679822       1.380535      -4.681652       0.060000                    
      -7.857951       0.579542      -3.095742       0.060000                    
       2.478407      -9.967580       3.101946      -0.120000                    
       1.650346      -8.848978       2.466376      -0.120000                    
       2.509169      -7.636151       2.102369      -0.120000                    
       3.329289      -7.136196       3.293376      -0.120000                    
       4.157350      -8.254798       3.928946      -0.120000                    
       3.298527      -9.467625       4.292953      -0.120000                    
       3.160038     -10.364370       2.352534       0.060000                    
       1.802657     -10.746885       3.447788       0.060000                    
       1.187034      -9.231671       1.559469       0.060000                    
       0.887863      -8.534697       3.175947       0.060000                    
       3.192197      -7.920593       1.304784       0.060000                    
       1.854156      -6.833558       1.769906       0.060000                    
       2.647658      -6.739406       4.042789       0.060000                    
       4.005034      -6.356893       2.947526       0.060000                    
       4.919836      -8.569088       3.219364       0.060000                    
       4.620662      -7.872105       4.835853       0.060000                    
       2.615494      -9.183184       5.090528       0.060000                    
       3.953541     -10.270218       4.625416       0.060000                    
       3.530513       0.890176       7.361501      -0.120000                    
       4.409405       0.664451       8.593383      -0.120000                    
       5.297863       1.873584       8.892846      -0.120000                    
       6.118554       2.298080       7.673292      -0.120000                    
       5.239649       2.523805       6.441416      -0.120000                    
       4.351204       1.314672       6.141947      -0.120000                    
       2.811155       1.674717       7.586648       0.060000                    
       3.014879      -0.038718       7.127344       0.060000                    
       3.765527       0.485066       9.451732       0.060000                    
       5.046458      -0.198768       8.412540       0.060000                    
       4.663675       2.705489       9.191824       0.060000                    
       5.981355       1.611861       9.697846       0.060000                    
       6.837912       1.513539       7.448145       0.060000                    
       6.634184       3.226973       7.907440       0.060000                    
       4.602609       3.387025       6.622252       0.060000                    
       5.883540       2.703190       5.583060       0.060000                    
       4.985385       0.482774       5.842971       0.060000                    
       3.667705       1.576402       5.336948       0.060000                    
       9.173364       4.831660      -1.066337      -0.120000                    
       9.081501       5.401736       0.350503      -0.120000                    
       8.998847       6.929526       0.349293      -0.120000                    
      10.137611       7.564632      -0.451268      -0.120000                    
      10.229482       6.994551      -1.868110      -0.120000                    
      10.312129       5.466754      -1.866896      -0.120000                    
       8.235153       5.027185      -1.581330       0.060000                    
       9.350861       3.760390      -0.999267       0.060000                    
       8.187511       5.005596       0.827424       0.060000                    
       9.968831       5.102017       0.904112       0.060000                    
       8.052226       7.226159      -0.097416       0.060000                    
       9.057878       7.281712       1.377048       0.060000                    
      11.075825       7.369100       0.063715       0.060000                    
       9.960114       8.635903      -0.518337       0.060000                    
       9.342146       7.294262      -2.421715       0.060000                    
      11.123465       7.390697      -2.345029       0.060000                    
      11.258751       5.170120      -1.420187       0.060000                    
      10.253099       5.114567      -2.894650       0.060000                    
      -7.456030      -1.102889       5.755792      -0.120000                    
      -6.103686      -0.512134       5.351985      -0.120000                    
      -4.943499      -1.173075       6.099051      -0.120000                    
      -5.149800      -1.148919       7.614910      -0.120000                    
      -6.502144      -1.739674       8.018718      -0.120000                    
      -7.662331      -1.078733       7.271651      -0.120000                    
      -7.500094      -2.135283       5.415341       0.060000                    
      -8.244831      -0.517374       5.288201       0.060000                    
      -5.962075      -0.665601       4.284240       0.060000                    
      -6.105600       0.550925       5.583421       0.060000                    
      -4.866427      -2.208823       5.775096       0.060000                    
      -4.027394      -0.635148       5.864253       0.060000                    
      -5.105742      -0.116533       7.955364       0.060000                    
      -4.360999      -1.734434       8.082500       0.060000                    
      -6.500223      -2.802740       7.787280       0.060000                    
      -6.643748      -1.586215       9.086460       0.060000                    
      -7.739392      -0.042991       7.595613       0.060000                    
      -8.578429      -1.616668       7.506447       0.060000                    
      -6.383745      -8.170078      -3.912970      -0.120000                    
      -6.069987      -8.406821      -5.391622      -0.120000                    
      -4.715859      -7.817474      -5.791645      -0.120000                    