%nprocshared=4                                                                       
%mem=8GB                                                                             
#P pop=chelpg cam-b3lyp/gen scf=qc int=ultrafine charge td(nstates=10)               
                                                                                     
pNA CAM-B3LYP def2-TZVPD Single point - solvent def2-SV(P)                           
                                                                                     
0 1                                                                                  
 C       1.386341       0.000000       0.000000                                 
 C       0.000000       0.000000       0.000000                                 
 C      -0.712907       1.188984      -0.000000                                 
 C      -0.035635       2.384357       0.000131                                 
 C       1.365534       2.410943       0.000833                                 
 C       2.063239       1.195576       0.000133                                 
 H       1.918972      -0.938700       0.000854                                 
 H      -1.791888       1.163049       0.000837                                 
 H      -0.586620       3.315732      -0.002113                                 
 H       3.145392       1.202000      -0.002090                                 
 N      -0.713906      -1.260429       0.001744                                 
 O      -1.931758      -1.232720       0.002551                                 
 O      -0.063858      -2.290656       0.002518                                 
 N       2.037885       3.598040      -0.033161                                 
 H       1.540331       4.445798       0.174764                                 
 H       3.020819       3.607257       0.174736                                 
 C       7.006894       2.969244       1.181751                                 
 C       6.728111       2.000331       0.030978                                 
 C       6.475245       2.734166      -1.287570                                 
 C       5.380194       3.794212      -1.152838                                 
 C       5.658988       4.763139      -0.002062                                 
 C       5.911843       4.029304       1.316484                                 
 H       7.954142       3.469977       0.992949                                 
 H       7.057968       2.402393       2.108936                                 
 H       7.591518       1.350122      -0.093057                                 
 H       5.845778       1.413183       0.276809                                 
 H       7.396878       3.223509      -1.595393                                 
 H       6.165616       2.007649      -2.035921                                 
 H       4.432945       3.293487      -0.964029                                 
 H       5.329130       4.361062      -2.080021                                 
 H       6.541312       5.350287      -0.247895                                 
 H       4.795579       5.413340       0.121979                                 
 H       4.990209       3.539954       1.624313                                 
 H       6.221480       4.755814       2.064844                                 
 C      -4.844204       2.315385      -2.563401                                 
 C      -5.358521       2.703325      -1.175653                                 
 C      -4.627901       1.949796      -0.062367                                 
 C      -4.655479       0.435734      -0.281180                                 
 C      -4.141164       0.047781      -1.668930                                 
 C      -4.871785       0.801316      -2.782208                                 
 H      -3.817925       2.662459      -2.663439                                 
 H      -5.476616       2.786532      -3.312842                                 
 H      -5.203069       3.770643      -1.033067                                 
 H      -6.418655       2.465490      -1.118703                                 
 H      -3.591249       2.279289      -0.041839                                 
 H      -5.113611       2.173005       0.885254                                 
 H      -5.681760       0.088653      -0.181136                                 
 H      -4.023070      -0.035420       0.468267                                 
 H      -3.081030       0.285622      -1.725872                                 
 H      -4.296617      -1.019531      -1.811508                                 
 H      -5.908436       0.471823      -2.802737                                 
 H      -4.386074       0.578100      -3.729837                                 
 C       5.602999      -4.163040       0.696707                                 
 C       6.115435      -3.805313      -0.699837                                 
 C       5.117001      -2.941178      -1.472746                                 
 C       3.725070      -3.574843      -1.517952                                 
 C       3.212635      -3.932563      -0.121415                                 
 C       4.211077      -4.796700       0.651510                                 
 H       5.551866      -3.253684       1.291777                                 
 H       6.293143      -4.871866       1.149295                                 
 H       7.047041      -3.252854      -0.597393                                 
 H       6.281727      -4.725764      -1.255509                                 
 H       5.042489      -1.972969      -0.982253                                 
 H       5.477508      -2.820968      -2.492215                                 
 H       3.776212      -4.484200      -2.113021                                 
 H       3.034935      -2.866011      -1.970531                                 
 H       3.046341      -3.012113       0.434271                                 
 H       2.281027      -4.485023      -0.223845                                 
 H       4.285590      -5.764902       0.161010                                 
 H       3.850570      -4.916909       1.670979                                 
 C       3.852527       1.348326       3.776225                                 
 C       4.994705       0.392626       3.425590                                 
 C       4.501193      -0.829618       2.648674                                 
 C       3.357141      -1.544288       3.370718                                 
 C       2.214962      -0.588580       3.721359                                 
 C       2.708473       0.633649       4.498275                                 
 H       3.466247       1.781018       2.855766                                 
 H       4.240099       2.129469       4.426783                                 
 H       5.718143       0.925594       2.812232                                 
 H       5.459886       0.053239       4.348677                                 
 H       4.146219      -0.501882       1.673881                                 
 H       5.329019      -1.526252       2.534122                                 
 H       3.743419      -1.976988       4.291183                                 
 H       2.969566      -2.325431       2.720174                                 
 H       1.749781      -0.249194       2.798273                                 
 H       1.491525      -1.121556       4.334711                                 
 H       3.063447       0.305927       5.473068                                 
 H       1.880639       1.330291       4.612818                                 
 C      -1.500532      -3.812475      -2.793497                                 
 C      -1.278170      -4.111485      -4.277419                                 
 C      -1.554375      -5.578212      -4.614172                                 
 C      -0.766628      -6.531468      -3.713189                                 
 C      -0.989002      -6.232458      -2.229255                                 
 C      -0.712795      -4.765730      -1.892516                                 
 H      -2.560177      -3.920775      -2.571982                                 
 H      -1.174891      -2.794301      -2.591356                                 
 H      -1.950857      -3.487835      -4.862385                                 
 H      -0.243137      -3.886631      -4.526130                                 
 H      -2.616621      -5.771540      -4.480443                                 
 H      -1.265287      -5.758032      -5.647522                                 
 H       0.293007      -6.423168      -3.934705                                 
 H      -1.092269      -7.549643      -3.915329                                 
 H      -2.024023      -6.457306      -1.980548                                 
 H      -0.316316      -6.856108      -1.644288                                 
 H       0.349460      -4.572396      -2.026235                                 
 H      -1.001883      -4.585910      -0.859165                                 
 C      -1.200639       1.493966       4.630124                                 
 C      -1.454246      -0.013751       4.572395                                 
 C      -2.439165      -0.387138       3.462661                                 
 C      -3.741632       0.409774       3.560078                                 
 C      -3.488015       1.917491       3.617809                                 
 C      -2.503104       2.290886       4.727535                                 
 H      -0.676768       1.793353       3.724797                                 
 H      -0.593792       1.711172       5.506547                                 
 H      -0.509234      -0.518272       4.382738                                 
 H      -1.867935      -0.333534       5.526479                                 
 H      -1.974980      -0.178477       2.501102                                 
 H      -2.672647      -1.446436       3.546990                                 
 H      -4.265501       0.110395       4.465398                                 
 H      -4.348477       0.192576       2.683649                                 
 H      -3.074334       2.237282       2.663717                                 
 H      -4.433036       2.422028       3.807465                                 
 H      -2.967291       2.082232       5.689101                                 
 H      -2.269623       3.350184       4.643207                                 
 C      -0.730897      -4.534266       4.081244                                 
 C      -1.696401      -5.661290       3.709014                                 
 C      -0.965776      -6.981542       3.455724                                 
 C       0.157973      -6.827108       2.428941                                 
 C       1.123475      -5.700092       2.801177                                 
 C       0.392862      -4.379840       3.054455                                 
 H      -0.288719      -4.760749       5.049161                                 
 H      -1.287984      -3.601091       4.129941                                 
 H      -2.397391      -5.803552       4.528780                                 
 H      -2.227895      -5.378671       2.802758                                 
 H      -0.534988      -7.325974       4.393495                                 
 H      -1.682400      -7.708886       3.080059                                 
 H      -0.284207      -6.600633       1.461030                                 
 H       0.715058      -7.760291       2.380250                                 
 H       1.654969      -5.982710       3.707434                                 
 H       1.824467      -5.557822       1.981405                                 
 H      -0.037936      -4.035400       2.116690                                 
 H       1.109486      -3.652488       3.430127                                 
 C      -6.198987      -3.444071       2.977609                                 
 C      -4.684900      -3.418217       3.196230                                 
 C      -3.917723      -3.290073       1.878642                                 
 C      -4.332549      -4.360577       0.867233                                 
 C      -5.846646      -4.386429       0.648610                                 
 C      -6.613825      -4.514581       1.966205                                 
 H      -6.512900      -2.471942       2.603325                                 
 H      -6.683961      -3.657097       3.927917                                 
 H      -4.439058      -2.565880       3.825995                                 
 H      -4.387991      -4.344964       3.682674                                 
 H      -4.121643      -2.310499       1.451428                                 
 H      -2.854703      -3.398569       2.083363                                 
 H      -4.018648      -5.332711       1.241522                                 
 H      -3.847587      -4.147557      -0.083071                                 
 H      -6.143555      -3.459683       0.162166                                 
 H      -6.092478      -5.238768       0.018847                                 
 H      -6.409904      -5.494147       2.393412                                 
 H      -7.676834      -4.406085       1.761485                                 
 C      -2.137673       4.972726      -4.313480                                 
 C      -0.845423       4.593976      -3.587146                                 
 C       0.311456       5.526485      -3.951956                                 
 C       0.512645       5.625489      -5.465474                                 
 C      -0.779604       6.004232      -6.191815                                 
 C      -1.936494       5.071730      -5.826999                                 
 H      -2.474072       5.938985      -3.943550                                 
 H      -2.886474       4.209822      -4.111472                                 
 H      -1.017959       4.657099      -2.514868                                 
 H      -0.574438       3.578041      -3.866616                                 
 H       0.093105       6.519404      -3.564558                                 
 H       1.224445       5.139236      -3.504492                                 
 H       0.849035       4.659223      -5.835413                                 
 H       1.261449       6.388394      -5.667496                                 
 H      -1.050599       7.020168      -5.912346                                 
 H      -0.607069       5.941115      -7.264085                                 
 H      -1.718143       4.078812      -6.214398                                 
 H      -2.849473       5.458972      -6.274470                                 
 C       2.436774       6.286032       3.439524                                 
 C       2.832956       4.890715       3.926363                                 
 C       1.819047       4.321387       4.920796                                 
 C       1.555483       5.280589       6.083319                                 
 C       1.159293       6.675907       5.596465                                 
 C       2.173199       7.245234       4.602045                                 
 H       1.529257       6.202294       2.845316                                 
 H       3.247836       6.686738       2.835215                                 
 H       2.888552       4.225512       3.067313                                 
 H       3.802001       4.955683       4.416687                                 
 H       0.881816       4.142912       4.397974                                 
 H       2.211087       3.388937       5.321522                                 
 H       2.462990       5.364321       6.677517                                 
 H       0.744421       4.879876       6.687620                                 
 H       0.190257       6.610946       5.106151                                 
 H       1.103697       7.341111       6.455514                                 
 H       3.110440       7.423709       5.124869                                 
 H       1.781170       8.177677       4.201313                                 
 C      -0.122257      -0.512383      -4.300323                                 
 C       0.941239      -1.351094      -5.011984                                 
 C       2.244889      -0.575130      -5.210405                                 
 C       2.012763       0.767147      -5.907095                                 
 C       0.949277       1.605858      -5.195434                                 
 C      -0.354383       0.829894      -4.997014                                 
 H       0.208955      -0.322590      -3.281519                                 
 H      -1.057572      -1.068045      -4.295700                                 
 H       1.149591      -2.232549      -4.409314                                 
 H       0.558416      -1.642916      -5.987654                                 
 H       2.690181      -0.388411      -4.235485                                 
 H       2.915733      -1.173489      -5.823286                                 
 H       1.681551       0.577354      -6.925900                                 
 H       2.948078       1.322803      -5.911726                                 
 H       1.332100       1.897680      -4.219764                                 
 H       0.740913       2.487306      -5.798099                                 
 H      -0.799667       0.643168      -5.971926                                 
 H      -1.025228       1.428239      -4.384134                                 
 C      -2.955226       8.680519       1.374071                                 
 C      -2.230211       7.563943       0.620055                                 
 C      -2.301052       7.756535      -0.896138                                 
 C      -3.739727       7.937417      -1.384508                                 
 C      -4.464742       9.053993      -0.630491                                 
 C      -4.393901       8.861402       0.885702                                 
 H      -2.415593       9.612344       1.218623                                 
 H      -2.976360       8.428699       2.432236                                 
 H      -1.184999       7.562394       0.921879                                 
 H      -2.697150       6.614135       0.872061                                 
 H      -1.729828       8.643777      -1.160987                                 
 H      -1.878152       6.877693      -1.378334                                 
 H      -4.279360       7.005593      -1.229060                                 
 H      -3.718593       8.189238      -2.442672                                 
 H      -3.997803      10.003801      -0.882497                                 
 H      -5.509964       9.055543      -0.932317                                 
 H      -4.965126       7.974160       1.150550                                 
 H      -4.816801       9.740243       1.367898                                 
 C       9.341161      -0.725274      -4.796593                                 
 C       8.786830      -0.196417      -3.472230                                 
 C       7.419048      -0.797654      -3.142528                                 
 C       6.423729      -0.622202      -4.291276                                 
 C       6.978058      -1.151058      -5.615638                                 
 C       8.345841      -0.549822      -5.945342                                 
 H       9.558692      -1.785311      -4.683938                                 
 H      10.249598      -0.177084      -5.036952                                 
 H       9.481595      -0.455723      -2.676211                                 
 H       8.683129       0.884107      -3.545448                                 
 H       7.543993      -1.861126      -2.950124                                 
 H       7.023407      -0.298531      -2.260460                                 
 H       6.206197       0.437828      -4.403924                                 
 H       5.515291      -1.170399      -4.050910                                 
 H       7.081758      -2.231590      -5.542414                                 
 H       6.283295      -0.891753      -6.411658                                 
 H       8.220904       0.513643      -6.137736                                 
 H       8.741491      -1.048945      -6.827407                                 
 C       5.334077       3.671771      -7.206642                                 
 C       4.469727       4.139562      -6.034032                                 
 C       5.309152       4.757946      -4.914200                                 
 C       6.435039       3.826527      -4.460504                                 
 C       7.299388       3.358723      -5.633114                                 
 C       6.459963       2.740338      -6.752947                                 
 H       5.775638       4.544569      -7.683024                                 
 H       4.702548       3.135891      -7.912062                                 
 H       3.767913       4.887838      -6.396173                                 
 H       3.933509       3.281837      -5.633452                                 
 H       5.749451       5.683092      -5.280083                                 
 H       4.660570       4.959087      -4.064129                                 
 H       5.993467       2.953716      -3.984124                                 
 H       7.066557       4.362400      -3.755078                                 
 H       7.835596       4.216449      -6.033696                                 
 H       8.001192       2.610461      -5.270975                                 
 H       6.019654       1.815200      -6.387057                                 
 H       7.108545       2.539197      -7.603017                                 
                                                                                
      -5.956992      -2.584298      -4.391926      -0.120000                    
      -6.906030      -2.818351      -5.568959      -0.120000                    
      -8.330782      -2.355935      -5.257127      -0.120000                    
      -8.862477      -2.971287      -3.961102      -0.120000                    
      -7.913437      -2.737241      -2.784076      -0.120000                    
      -6.488686      -3.199656      -3.095907      -0.120000                    
      -5.841679      -1.512326      -4.246070       0.060000                    
      -4.996315      -3.038998      -4.624112       0.060000                    
      -6.539371      -2.259903      -6.427621       0.060000                    
      -6.927073      -3.882967      -5.792265       0.060000                    
      -8.329898      -1.272977      -5.153028       0.060000                    
      -8.980744      -2.655711      -6.076511       0.060000                    
      -8.977791      -4.043272      -4.106958       0.060000                    
      -9.823154      -2.516600      -3.728916       0.060000                    
      -7.892395      -1.672631      -2.560763       0.060000                    
      -8.280099      -3.295688      -1.925399       0.060000                    
      -6.489573      -4.282615      -3.199993       0.060000                    
      -5.838725      -2.899880      -2.276523       0.060000                    
       2.840988      10.552371       2.298337      -0.120000                    
       3.668121      10.467158       1.013994      -0.120000                    
       3.017075      11.233995      -0.138855      -0.120000                    
       1.564845      10.807780      -0.363133      -0.120000                    
       0.737713      10.893000       0.921203      -0.120000                    
       1.388759      10.126149       2.074051      -0.120000                    
       2.850779      11.581699       2.650562       0.060000                    
       3.285398       9.894718       3.042372       0.060000                    
       4.650679      10.893731       1.204274       0.060000                    
       3.759646       9.421420       0.728113       0.060000                    
       3.035400      12.296169       0.095866       0.060000                    
       3.581092      11.038836      -1.048544       0.060000                    
       1.555064       9.778451      -0.715356       0.060000                    
       1.120436      11.465426      -1.107176       0.060000                    
       0.646187      11.938725       1.207083       0.060000                    
      -0.244845      10.466427       0.730923       0.060000                    
       1.370433       9.063974       1.839332       0.060000                    
       0.824741      10.321316       2.983747       0.060000                    
       6.545894       7.701998       5.660865      -0.120000                    
       6.233233       8.537525       4.417888      -0.120000                    
       6.480394       7.756789       3.125475      -0.120000                    
       7.888751       7.160916       3.076085      -0.120000                    
       8.201412       6.325382       4.319069      -0.120000                    
       7.954252       7.106125       5.611475      -0.120000                    
       5.826183       6.888470       5.723063       0.060000                    
       6.469436       8.341302       6.537857       0.060000                    
       5.186462       8.832218       4.451270       0.060000                    
       6.873193       9.417358       4.420355       0.060000                    
       5.757490       6.945954       3.065439       0.060000                    
       6.359400       8.433365       2.282059       0.060000                    
       8.608463       7.974437       3.013894       0.060000                    
       7.965209       6.521605       2.199100       0.060000                    
       7.561452       5.445548       4.316603       0.060000                    
       9.248186       6.030695       4.285681       0.060000                    
       8.677148       7.916962       5.671510       0.060000                    
       8.075246       6.429549       6.454892       0.060000                    
       8.704925      -2.077396       1.907386      -0.120000                    
       9.228065      -1.509321       0.586595      -0.120000                    
      10.500173      -0.682001       0.782413      -0.120000                    
      10.318750       0.406258       1.842498      -0.120000                    
       9.795609      -0.161811       3.163296      -0.120000                    
       8.523513      -0.989131       2.967480      -0.120000                    
       9.419703      -2.808738       2.278722       0.060000                    
       7.741832      -2.549613       1.725593       0.060000                    
       9.451190      -2.336690      -0.083649       0.060000                    
       8.460757      -0.870236       0.154772       0.060000                    
      11.301441      -1.346102       1.099474       0.060000                    
      10.755176      -0.207459      -0.162849       0.060000                    
       9.603981       1.137606       1.471170       0.060000                    
      11.281841       0.878480       2.024298       0.060000                    
      10.562919      -0.800896       3.595119       0.060000                    
       9.572486       0.665558       3.833540       0.060000                    
       7.722234      -0.325030       2.650417       0.060000                    
       8.268499      -1.463673       3.912740       0.060000                    
      -7.189555       4.762716       1.165149      -0.120000                    
      -8.297137       4.621928       0.119039      -0.120000                    
      -9.675458       4.951470       0.695803      -0.120000                    
      -9.975676       4.144296       1.960471      -0.120000                    
      -8.868093       4.285084       3.006582      -0.120000                    
      -7.489773       3.955535       2.429824      -0.120000                    
      -7.098643       5.812462       1.436137       0.060000                    
      -6.257529       4.401822       0.735464       0.060000                    
      -8.090393       5.306841      -0.700559       0.060000                    
      -8.307222       3.595184      -0.240639       0.060000                    
      -9.704343       6.010316       0.944110       0.060000                    
     -10.430168       4.718697      -0.052518       0.060000                    
     -10.066586       3.094550       1.689482       0.060000                    
     -10.907700       4.505190       2.390157       0.060000                    
      -8.858008       5.311820       3.366266       0.060000                    
      -9.074838       3.600163       3.826186       0.060000                    
      -7.460888       2.896688       2.181517       0.060000                    
      -6.735064       4.188307       3.178145       0.060000                    
       3.420232       8.318553      -4.884141      -0.120000                    
       2.802341       9.356688      -3.945316      -0.120000                    
       2.949141      10.779629      -4.488203      -0.120000                    