%nprocshared=4                                                                       
%mem=8GB                                                                             
#P pop=chelpg cam-b3lyp/gen scf=qc int=ultrafine charge td(nstates=10)               
                                                                                     
pNA CAM-B3LYP def2-TZVPD Single point - solvent def2-SV(P)                           
                                                                                     
0 1                                                                                  
 C       1.389235       0.000000      -0.000000                                 
 C       0.000000       0.000000      -0.000000                                 
 C      -0.711164       1.193419       0.000000                                 
 C      -0.034074       2.386367       0.000141                                 
 C       1.370482       2.412065       0.000933                                 
 C       2.067428       1.192342       0.000144                                 
 H       1.924301      -0.937208       0.000967                                 
 H      -1.790186       1.173300       0.000962                                 
 H      -0.583208       3.318526      -0.000772                                 
 H       3.149318       1.197759      -0.000767                                 
 N      -0.711160      -1.251627       0.001756                                 
 O      -1.932441      -1.229701       0.002542                                 
 O      -0.067142      -2.289538       0.002483                                 
 N       2.040236       3.590780      -0.024683                                 
 H       1.546357       4.451509       0.132529                                 
 H       3.032458       3.607145       0.132525                                 
Cl       2.406350      -5.029018       2.057567                                 
 C       2.847242      -3.282214       1.985446                                 
 H       3.932280      -3.180226       1.999533                                 
 H       2.452878      -2.845271       1.068125                                 
 C       2.251589      -2.555681       3.192809                                 
 H       1.166551      -2.657669       3.178722                                 
 H       2.645953      -2.992624       4.110129                                 
Cl       2.692482      -0.808872       3.120697                                 
Cl       4.787518       2.712210       1.315904                                 
 C       5.313878       1.785939       2.770505                                 
 H       4.484314       1.710634       3.473409                                 
 H       5.628374       0.786311       2.470823                                 
 C       6.484327       2.509039       3.439502                                 
 H       7.313900       2.584345       2.736596                                 
 H       6.169831       3.508667       3.739184                                 
Cl       7.010686       1.582768       4.894103                                 
Cl      -3.197937       4.438925      -1.712907                                 
 C      -4.314977       3.045505      -1.464903                                 
 H      -3.781657       2.236278      -0.966237                                 
 H      -5.157159       3.359897      -0.848592                                 
 C      -4.829797       2.557164      -2.820178                                 
 H      -5.363116       3.366395      -3.318834                                 
 H      -3.987615       2.242773      -3.436489                                 
Cl      -5.946847       1.163743      -2.572172                                 
Cl      -3.088380       1.097193       2.916295                                 
 C      -3.245249      -0.698646       2.879653                                 
 H      -2.317282      -1.137260       2.512999                                 
 H      -3.448762      -1.066416       3.885247                                 
 C      -4.395963      -1.091151       1.951123                                 
 H      -5.323939      -0.652538       2.317779                                 
 H      -4.192451      -0.723385       0.945520                                 
Cl      -4.552842      -2.886991       1.914483                                 
Cl      -0.860517       1.230839      -3.689034                                 
 C       0.016855      -0.240599      -4.251149                                 
 H      -0.415065      -1.123547      -3.780239                                 
 H      -0.072488      -0.325677      -5.334092                                 
 C       1.494092      -0.130610      -3.868988                                 
 H       1.926012       0.752338      -4.339898                                 
 H       1.583433      -0.045527      -2.786058                                 
Cl       2.371462      -1.602039      -4.431107                                 
                                                                                
       4.636438      -1.373480      -0.727358      -0.200000                    
       5.963787      -2.566063      -0.468833      -0.006000                    
       6.204202      -2.617972       0.592975       0.103000                    
       5.643518      -3.547795      -0.817491       0.103000                    
       7.203176      -2.127111      -1.250883      -0.006000                    
       6.962751      -2.075204      -2.312689       0.103000                    
       7.523447      -1.145389      -0.902221       0.103000                    
       8.530526      -3.319707      -0.992362      -0.200000                    
      -0.366576       5.211242       2.214008      -0.200000                    
      -0.919434       6.922260       2.347091      -0.006000                    
      -1.281942       7.109663       3.357752       0.103000                    
      -0.086948       7.591301       2.129560       0.103000                    
      -2.049011       7.172472       1.346177      -0.006000                    
      -1.686499       6.985064       0.335528       0.103000                    
      -2.881494       6.503426       1.563721       0.103000                    
      -2.601869       8.883490       1.479259      -0.200000                    
       3.209632      -5.139488      -1.359375      -0.200000                    
       1.434959      -5.249188      -1.658361      -0.006000                    
       1.177796      -6.267097      -1.951010       0.103000                    
       0.895974      -4.985325      -0.748518       0.103000                    
       1.046008      -4.283275      -2.779135      -0.006000                    
       1.303171      -3.265366      -2.486487       0.103000                    
       1.584993      -4.547137      -3.688978       0.103000                    
      -0.728665      -4.392975      -3.078122      -0.200000                    
       0.771447       6.289131      -2.116078      -0.200000                    
       1.596878       5.363257      -3.424638      -0.006000                    
       2.340718       4.698324      -2.985891       0.103000                    
       0.861502       4.774686      -3.973032       0.103000                    
       2.285982       6.337495      -4.381900      -0.006000                    
       1.542144       7.002431      -4.820638       0.103000                    
       3.021370       6.926070      -3.833498       0.103000                    
       3.111412       5.411629      -5.690464      -0.200000                    
       6.876203       6.740719       2.360517      -0.200000                    
       5.129395       6.298484       2.297563      -0.006000                    
       4.971062       5.552401       1.518955       0.103000                    
       4.822861       5.889869       3.260380       0.103000                    
       4.298807       7.544691       1.985379      -0.006000                    
       4.457140       8.290774       2.763988       0.103000                    
       4.605341       7.953307       1.022562       0.103000                    
       2.552009       7.102457       1.922423      -0.200000                    
       9.110662       6.184160      -2.973358      -0.200000                    
       7.876997       5.806809      -1.713788      -0.006000                    
       8.057750       4.808561      -1.315381       0.103000                    
       7.944778       6.537611      -0.908005       0.103000                    
       6.480223       5.861981      -2.335359      -0.006000                    
       6.299469       6.860230      -2.733765       0.103000                    
       6.412442       5.131180      -3.141142       0.103000                    
       5.246548       5.484630      -1.075787      -0.200000                    
      -1.525789      -6.727956      -0.720420      -0.200000                    
      -2.139652      -5.620724       0.563404      -0.006000                    
      -2.284164      -4.624450       0.145680       0.103000                    
      -3.089228      -5.996569       0.944136       0.103000                    
      -1.124287      -5.551819       1.705632      -0.006000                    
      -0.979775      -6.548092       2.123355       0.103000                    
      -0.174711      -5.175974       1.324899       0.103000                    
      -1.738150      -4.444587       2.989455      -0.200000                    
       2.234123       3.131713       3.234559      -0.200000                    
       0.820484       2.184036       3.829869      -0.006000                    
      -0.080607       2.793361       3.761261       0.103000                    
       0.700804       1.288167       3.220734       0.103000                    
       1.053586       1.781669       5.287301      -0.006000                    
       1.954677       1.172343       5.355907       0.103000                    
       1.173266       2.677538       5.896435       0.103000                    
      -0.360043       0.833993       5.882608      -0.200000                    
      -3.324050      -1.271505      -2.926386      -0.200000                    
      -4.926523      -2.096864      -2.885317      -0.006000                    
      -5.715699      -1.368091      -3.069805       0.103000                    
      -4.957649      -2.868922      -3.654029       0.103000                    
      -5.135312      -2.737034      -1.511662      -0.006000                    
      -4.346143      -3.465813      -1.327159       0.103000                    
      -5.104194      -1.964986      -0.742945       0.103000                    
      -6.737793      -3.562391      -1.470582      -0.200000                    
       6.659425      -0.073400      -5.036895      -0.200000                    
       5.361437       1.139353      -4.727921      -0.006000                    
       5.630644       2.086888      -5.194452       0.103000                    
       4.421721       0.781222      -5.148213       0.103000                    
       5.200842       1.341459      -3.220036      -0.006000                    
       4.931632       0.393928      -2.753519       0.103000                    
       6.140558       1.699589      -2.799744       0.103000                    
       3.902853       2.554208      -2.911072      -0.200000                    
       4.606034       8.905907      -2.479999      -0.200000                    
       3.575313      10.010922      -1.496362      -0.006000                    
       3.881956       9.960254      -0.451682       0.103000                    
       3.688180      11.032454      -1.859258       0.103000                    
       2.110845       9.585787      -1.618594      -0.006000                    
       1.804212       9.636457      -2.663277       0.103000                    
       1.997988       8.564257      -1.255700       0.103000                    
       1.080124      10.690801      -0.634958      -0.200000                    
      -1.645455       6.395564      -4.525910      -0.200000                    
      -2.226165       4.753838      -4.993229      -0.006000                    
      -1.641517       3.998354      -4.468470       0.103000                    
      -3.277682       4.650353      -4.725799       0.103000                    
      -2.063594       4.566011      -6.502758      -0.006000                    
      -2.648243       5.321489      -7.027527       0.103000                    
      -1.012079       4.669492      -6.770198       0.103000                    
      -2.644306       2.924280      -6.970087      -0.200000                    
      -2.577861       3.111439       6.762806      -0.200000                    
      -3.855930       4.024796       5.877821      -0.006000                    
      -4.511888       3.324154       5.361313       0.103000                    
      -4.438560       4.613602       6.586181       0.103000                    
      -3.201757       4.957485       4.856774      -0.006000                    
      -2.545806       5.658121       5.373297       0.103000                    
      -2.619135       4.368672       4.148429       0.103000                    
      -4.479825       5.870832       3.971793      -0.200000                    
      11.973486       2.147593      -2.333608      -0.200000                    
      10.392786       2.701616      -1.666143      -0.006000                    
      10.559614       3.230205      -0.727670       0.103000                    
       9.911262       3.370386      -2.379463       0.103000                    
       9.492418       1.490440      -1.415550      -0.006000                    
       9.325593       0.961842      -2.354020       0.103000                    
       9.973944       0.821661      -0.702227       0.103000                    
       7.911718       2.044464      -0.748086      -0.200000                    
       5.787737       5.888588       5.712997      -0.200000                    
       5.543206       4.648278       6.998573      -0.006000                    
       6.370299       3.938644       6.981181       0.103000                    
       5.503598       5.136656       7.972146       0.103000                    
       4.229499       3.905656       6.747406      -0.006000                    
       3.402407       4.615291       6.764798       0.103000                    
       4.269107       3.417278       5.773834       0.103000                    
       3.984969       2.665350       8.032992      -0.200000                    
       0.810129      10.496680       4.178823      -0.200000                    
       1.776977      10.795321       2.686545      -0.006000                    
       1.886210       9.863632       2.131559       0.103000                    
       1.267716      11.531399       2.064608       0.103000                    
       3.159910      11.323670       3.072186      -0.006000                    
       3.050687      12.255360       3.627169       0.103000                    
       3.669171      10.587592       3.694122       0.103000                    
       4.126759      11.622310       1.579907      -0.200000                    
       0.568865       5.182491       5.792598      -0.200000                    
       1.437179       6.755066       5.947377      -0.006000                    
       2.449201       6.651608       5.556166       0.103000                    
       0.905648       7.520988       5.382761       0.103000                    
       1.499744       7.160095       7.421283      -0.006000                    
       0.487721       7.263562       7.812489       0.103000                    
       2.031275       6.394186       7.985903       0.103000                    
       2.368058       8.732669       7.576061      -0.200000                    
      11.056176      -4.021610       3.749216      -0.200000                    
       9.748413      -2.781017       3.708887      -0.006000                    
       8.849493      -3.185060       4.174307       0.103000                    
      10.072063      -1.893723       4.252873       0.103000                    
       9.445788      -2.406148       2.256881      -0.006000                    
      10.344708      -2.002105       1.791460       0.103000                    
       9.122136      -3.293429       1.712900       0.103000                    
       8.138024      -1.165554       2.216552      -0.200000                    
      -9.215775       6.245951       4.080505      -0.200000                    
      -8.949966       4.825749       3.001966      -0.006000                    
      -9.503523       3.968968       3.385912       0.103000                    
      -9.297976       5.062537       1.996598       0.103000                    
      -7.457971       4.490426       2.958759      -0.006000                    
      -6.904414       5.347207       2.574813       0.103000                    
      -7.109961       4.253639       3.964128       0.103000                    
      -7.192162       3.070220       1.880211      -0.200000                    
      -7.126404       6.215222      -0.347523      -0.200000                    
      -6.602863       7.101085      -1.828080      -0.006000                    
      -6.159093       6.399112      -2.533952       0.103000                    
      -7.465816       7.582460      -2.287964       0.103000                    
      -5.569481       8.163223      -1.448139      -0.006000                    
      -6.013253       8.865202      -0.742281       0.103000                    
      -4.706539       7.681857      -0.988257       0.103000                    
      -5.045942       9.049095      -2.928700      -0.200000                    
      -4.106658      -7.033918      -4.527248      -0.200000                    
      -4.613619      -7.164957      -2.801945      -0.006000                    
      -3.944937      -6.569691      -2.180290       0.103000                    
      -5.633967      -6.797316      -2.693880       0.103000                    
      -4.550247      -8.628691      -2.361603      -0.006000                    
      -5.218927      -9.223953      -2.983251       0.103000                    
      -3.529898      -8.996332      -2.469669       0.103000                    
      -5.057206      -8.759727      -0.636291      -0.200000                    
      -1.713117      -2.386101      -6.127935      -0.200000                    
      -2.659519      -1.374689      -7.282198      -0.006000                    
      -3.512422      -1.944756      -7.650359       0.103000                    
      -3.013680      -0.477919      -6.773953       0.103000                    
      -1.767874      -0.974623      -8.459195      -0.006000                    
      -0.914970      -0.404551      -8.091024       0.103000                    
      -1.413712      -1.871388      -8.967429       0.103000                    
      -2.714278       0.036799      -9.613461      -0.200000                    
       5.551473      -1.813765       5.005886      -0.200000                    
       4.299221      -1.624326       6.289219      -0.006000                    
       3.645826      -0.788582       6.039096       0.103000                    
       3.709613      -2.538322       6.359628       0.103000                    
       4.981474      -1.353590       7.631447      -0.006000                    
       5.634861      -2.189344       7.881575       0.103000                    
       5.571082      -0.439594       7.561038       0.103000                    
       3.729222      -1.164151       8.914782      -0.200000                    
      -4.945496      -2.339372       5.621662      -0.200000                    
      -5.924865      -0.917704       6.141850      -0.006000                    
      -6.309163      -1.089213       7.147256       0.103000                    
      -5.299701      -0.024911       6.138972       0.103000                    
      -7.094863      -0.723436       5.175570      -0.006000                    
      -6.710566      -0.551931       4.170155       0.103000                    
      -7.720030      -1.616224       5.178435       0.103000                    
      -8.074235       0.698237       5.695745      -0.200000                    
      -3.098564      -4.479045       8.556923      -0.200000                    
      -1.395061      -4.565243       7.972475      -0.006000                    
      -0.715583      -4.505570       8.822562       0.103000                    
      -1.238184      -5.507214       7.447067       0.103000                    
      -1.123097      -3.399322       7.020118      -0.006000                    
      -1.802585      -3.458996       6.170033       0.103000                    
      -1.279985      -2.457352       7.545527       0.103000                    
       0.580396      -3.485535       6.435667      -0.200000                    
      -1.210519      -5.620190      -8.617948      -0.200000                    
      -0.866632      -5.818916      -6.859205      -0.006000                    
      -0.301464      -4.959045      -6.499815       0.103000                    
      -1.805870      -5.891504      -6.311050       0.103000                    
      -0.049224      -7.093367      -6.640274      -0.006000                    
      -0.614392      -7.953238      -6.999664       0.103000                    
       0.890012      -7.020769      -7.188432       0.103000                    
       0.294653      -7.292094      -4.881529      -0.200000                    
       3.639167      -7.464191      -5.566332      -0.200000                    
       4.665321      -8.446923      -4.456301      -0.006000                    
       4.100144      -9.311683      -4.108828       0.103000                    
       5.555642      -8.783868      -4.987101       0.103000                    
       5.080125      -7.593746      -3.256131      -0.006000                    
       5.645303      -6.728987      -3.603603       0.103000                    
       4.189795      -7.256803      -2.725329       0.103000                    
       6.106280      -8.576465      -2.146096      -0.200000                    
      -6.275513      -0.520297      -6.094570      -0.200000                    
      -5.896853       1.112188      -6.759832      -0.006000                    
      -4.871290       1.379508      -6.505510       0.103000                    
      -6.010882       1.098512      -7.843685       0.103000                    
      -6.855550       2.142321      -6.159732      -0.006000                    
      -7.881115       1.874998      -6.414063       0.103000                    
      -6.741522       2.155993      -5.075888       0.103000                    
      -6.476891       3.774807      -6.824994      -0.200000                    
       3.625749      -5.369232       6.913070      -0.200000                    
       2.346344      -6.576797       6.518353      -0.006000                    
       1.788202      -6.823485       7.421432       0.103000                    
       1.668224      -6.158149       5.774814       0.103000                    
       2.996141      -7.843823       5.959067      -0.006000                    
       3.554282      -7.597122       5.055993       0.103000                    
       3.674270      -8.262457       6.702610       0.103000                    
       1.716744      -9.051378       5.564344      -0.200000                    
      -9.074972      -0.956986      -2.213361      -0.200000                    
      -8.763782      -1.592848      -3.871590      -0.006000                    
      -8.454094      -0.775171      -4.522343       0.103000                    
      -7.974910      -2.343847      -3.830889       0.103000                    
     -10.042360      -2.226460      -4.423010      -0.006000                    
     -10.352050      -3.044128      -3.772262       0.103000                    
     -10.831232      -1.475461      -4.463712       0.103000                    
      -9.731169      -2.862322      -6.081239      -0.200000                    
      -4.953671     -10.145536       4.416574      -0.200000                    
      -5.365973      -9.095208       3.010259      -0.006000                    
      -4.485070      -8.967463       2.381254       0.103000                    
      -6.162606      -9.560680       2.430040       0.103000                    
      -5.834480      -7.728894       3.514294      -0.006000                    
      -6.715383      -7.856639       4.143298       0.103000                    
      -5.037857      -7.263410       4.094520       0.103000                    
      -6.246792      -6.678568       2.107981      -0.200000                    
       6.418980       6.955652      -8.433791      -0.200000                    
       6.766573       5.342894      -7.706363      -0.006000                    
       5.840292       4.774656      -7.622390       0.103000                    
       7.468825       4.801789      -8.340423       0.103000                    
       7.376421       5.531327      -6.316053      -0.006000                    
       8.302710       6.099576      -6.400032       0.103000                    
       6.674169       6.072432      -5.681993       0.103000                    
       7.724021       3.918576      -5.588639      -0.200000                    
       3.700653     -13.135579      -1.729122      -0.200000                    
       3.179708     -11.432460      -1.448461      -0.006000                    
       2.814808     -11.327536      -0.426812       0.103000                    
       4.026052     -10.763247      -1.602760       0.103000                    
       2.061101     -11.073318      -2.428284      -0.006000                    
       2.426000     -11.178233      -3.449938       0.103000                    
       1.214755     -11.742522      -2.273989       0.103000                    
       1.540154      -9.370190      -2.147627      -0.200000                    
       2.982449       9.538064      -9.731146      -0.200000                    
       2.637663       9.147060      -8.005147      -0.006000                    
       1.679588       9.580491      -7.718537       0.103000                    
       2.599908       8.065239      -7.877961       0.103000                    
       3.743570       9.725666      -7.120485      -0.006000                    
       4.701645       9.292234      -7.407094       0.103000                    
       3.781326      10.807487      -7.247671       0.103000                    
       3.398782       9.334665      -5.394499      -0.200000                    
      -8.982173      -2.806862       2.421866      -0.200000                    
     -10.406149      -3.066747       1.346832      -0.006000                    
     -10.990441      -2.148484       1.288991       0.103000                    
     -10.063345      -3.342950       0.349746       0.103000                    
     -11.276268      -4.189231       1.915468      -0.006000                    
     -10.691966      -5.107492       1.973307       0.103000                    
     -11.619073      -3.913014       2.912560       0.103000                    
     -12.700243      -4.449111       0.840443      -0.200000                    
      -0.544521     -12.645822       2.218432      -0.200000                    
      -1.306230     -11.390185       3.264448      -0.006000                    
      -2.367364     -11.609596       3.381785       0.103000                    
      -0.824616     -11.390471       4.242198       0.103000                    
      -1.139151     -10.015296       2.614705      -0.006000                    
      -0.078007      -9.795881       2.497366       0.103000                    
      -1.620766     -10.015000       1.636951       0.103000                    
      -1.900858      -8.759655       3.660730      -0.200000                    
      -8.794968       3.083138      -2.633317      -0.200000                    
      -9.752091       3.426600      -1.144428      -0.006000                    
     -10.425952       2.593478      -0.945152       0.103000                    
      -9.075932       3.557387      -0.299638       0.103000                    
     -10.568130       4.704775      -1.346358      -0.006000                    
      -9.894267       5.537888      -1.545630       0.103000                    
     -11.244287       4.573979      -2.191144       0.103000                    
     -11.525252       5.048229       0.142535      -0.200000                    
       6.250137      -5.627519       4.302768      -0.200000                    
       7.887813      -5.809759       5.034639      -0.006000                    
       8.220477      -6.842277       4.928868       0.103000                    
       8.588935      -5.148017       4.526251       0.103000                    
       7.826687      -5.443743       6.518798      -0.006000                    
       7.494032      -4.411229       6.624560       0.103000                    
       7.125575      -6.105484       7.027185       0.103000                    
       9.464375      -5.625991       7.250671      -0.200000                    
       2.867936       1.186008      -7.881436      -0.200000                    