%nprocshared=4                                                                       
%mem=8GB                                                                             
#P pop=chelpg cam-b3lyp/gen scf=qc int=ultrafine charge td(nstates=10)               
                                                                                     
pNA CAM-B3LYP def2-TZVPD Single point - solvent def2-SV(P)                           
                                                                                     
0 1                                                                                  
 C       1.389235       0.000000      -0.000000                                 
 C       0.000000       0.000000      -0.000000                                 
 C      -0.711164       1.193419       0.000000                                 
 C      -0.034074       2.386367       0.000141                                 
 C       1.370482       2.412065       0.000933                                 
 C       2.067428       1.192342       0.000144                                 
 H       1.924301      -0.937208       0.000967                                 
 H      -1.790186       1.173300       0.000962                                 
 H      -0.583208       3.318526      -0.000772                                 
 H       3.149318       1.197759      -0.000767                                 
 N      -0.711160      -1.251627       0.001756                                 
 O      -1.932441      -1.229701       0.002542                                 
 O      -0.067142      -2.289538       0.002483                                 
 N       2.040236       3.590780      -0.024683                                 
 H       1.546357       4.451509       0.132529                                 
 H       3.032458       3.607145       0.132525                                 
Cl       4.900392       3.359118       1.811664                                 
 C       6.389175       2.416032       1.430850                                 
 H       6.933542       2.906192       0.623794                                 
 H       7.022249       2.362708       2.316464                                 
 C       5.999797       1.001590       0.997108                                 
 H       5.455432       0.511439       1.804162                                 
 H       5.366734       1.054924       0.111495                                 
Cl       7.488581       0.058514       0.616292                                 
Cl      -3.520058       7.563709       1.208822                                 
 C      -1.796130       7.078322       1.416932                                 
 H      -1.236423       7.329333       0.516013                                 
 H      -1.369773       7.607469       2.269088                                 
 C      -1.717015       5.570356       1.662185                                 
 H      -2.276726       5.319347       2.563114                                 
 H      -2.143381       5.041209       0.810025                                 
Cl       0.006908       5.084971       1.870304                                 
Cl      -1.958363      -5.542117       2.909805                                 
 C      -1.436317      -3.833724       2.665292                                 
 H      -0.364807      -3.751405       2.847089                                 
 H      -1.655900      -3.529362       1.642005                                 
 C      -2.189489      -2.925970       3.639505                                 
 H      -3.260998      -3.008288       3.457708                                 
 H      -1.969905      -3.230331       4.662793                                 
Cl      -1.667442      -1.217576       3.394992                                 
Cl       1.146360       0.786127      -5.052909                                 
 C       1.722036      -0.460612      -3.884485                                 
 H       2.754580      -0.724124      -4.113332                                 
 H       1.664241      -0.063415      -2.871145                                 
 C       0.841939      -1.707106      -3.994012                                 
 H      -0.190604      -1.443594      -3.765165                                 
 H       0.899734      -2.104303      -5.007351                                 
Cl       1.417611      -2.953852      -2.825576                                 
Cl      -6.601829      -0.640960       2.451119                                 
 C      -5.710928       0.925129       2.518153                                 
 H      -6.390939       1.717122       2.831674                                 
 H      -4.890731       0.846600       3.231646                                 
 C      -5.151227       1.253122       1.132689                                 
 H      -4.471217       0.461129       0.819168                                 
 H      -5.971419       1.331663       0.419206                                 
Cl      -4.260331       2.819213       1.199731                                 
                                                                                
       4.394827      -1.999243       1.273402      -0.200000                    
       4.500736      -3.772346       0.963785      -0.006000                    
       4.090110      -4.315226       1.815025       0.103000                    
       3.932910      -4.019339       0.066839       0.103000                    
       5.964877      -4.168727       0.765037      -0.006000                    
       6.375507      -3.625850      -0.086213       0.103000                    
       6.532708      -3.921737       1.661974       0.103000                    
       6.070782      -5.941833       0.455407      -0.200000                    
      -6.168849       1.670892      -2.525011      -0.200000                    
      -4.623748       0.750159      -2.650535      -0.006000                    
      -4.415979       0.257363      -1.700855       0.103000                    
      -4.709772       0.001137      -3.437625       0.103000                    
      -3.482548       1.712348      -2.985533      -0.006000                    
      -3.690315       2.205154      -3.935216       0.103000                    
      -3.396522       2.461380      -2.198446       0.103000                    
      -1.937438       0.791615      -3.111053      -0.200000                    
      -5.962857      -3.051873      -2.286223      -0.200000                    
      -6.239819      -3.443307      -0.548115      -0.006000                    
      -6.425195      -2.523610       0.006632       0.103000                    
      -7.102640      -4.103006      -0.457005       0.103000                    
      -5.002905      -4.140898       0.020885      -0.006000                    
      -4.817520      -5.060595      -0.533858       0.103000                    
      -4.140075      -3.481199      -0.070221       0.103000                    
      -5.279867      -4.532332       1.758993      -0.200000                    
      -0.541456       3.937547      -4.916281      -0.200000                    
       0.674035       4.237763      -3.618844      -0.006000                    
       0.181405       4.684926      -2.755549       0.103000                    
       1.134276       3.294039      -3.326399       0.103000                    
       1.751789       5.190107      -4.140240      -0.006000                    
       2.244420       4.742953      -5.003538       0.103000                    
       1.291539       6.133831      -4.432689       0.103000                    
       2.967271       5.490323      -2.842807      -0.200000                    
       1.848728      -6.353014      -0.829187      -0.200000                    
       0.153299      -6.561244      -0.252116      -0.006000                    
       0.085914      -7.459240       0.361899       0.103000                    
      -0.138578      -5.693604       0.339430       0.103000                    
      -0.782025      -6.695459      -1.455255      -0.006000                    
      -0.714640      -5.797453      -2.069273       0.103000                    
      -0.490148      -7.563089      -2.046804       0.103000                    
      -2.477454      -6.903689      -0.878184      -0.200000                    
       2.709239       4.228412       5.887377      -0.200000                    
       2.317819       3.100169       4.536551      -0.006000                    
       1.239137       3.078575       4.381860       0.103000                    
       2.809072       3.440140       3.624976       0.103000                    
       2.810405       1.694845       4.886962      -0.006000                    
       3.889078       1.716440       5.041649       0.103000                    
       2.319138       1.354877       5.798542       0.103000                    
       2.418985       0.566603       3.536136      -0.200000                    
       5.591646       6.131964      -0.743528      -0.200000                    
       6.216235       6.971247      -2.211952      -0.006000                    
       5.419895       7.050340      -2.951894       0.103000                    
       6.561411       7.969004      -1.941271       0.103000                    
       7.380349       6.171581      -2.799943      -0.006000                    
       8.176689       6.092488      -2.060001       0.103000                    
       7.035170       5.173836      -3.070617       0.103000                    
       8.004939       7.010873      -4.268369      -0.200000                    
       7.071421       2.548940      -2.253839      -0.200000                    
       6.402662       2.274932      -3.905700      -0.006000                    
       7.094544       2.671788      -4.648499       0.103000                    
       6.266486       1.206103      -4.070121       0.103000                    
       5.054235       2.985989      -4.034324      -0.006000                    
       4.362350       2.589135      -3.291516       0.103000                    
       5.190412       4.054819      -3.869902       0.103000                    
       4.385471       2.711973      -5.686174      -0.200000                    
      -4.256639       3.698252       4.580323      -0.200000                    
      -2.533562       3.173137       4.658780      -0.006000                    
      -2.262805       2.674191       3.728357       0.103000                    
      -1.894341       4.043952       4.803698       0.103000                    
      -2.348319       2.204885       5.828616      -0.006000                    
      -2.619077       2.703822       6.759041       0.103000                    
      -2.987550       1.334061       5.683696       0.103000                    
      -0.625247       1.679773       5.907082      -0.200000                    
      -2.386237      11.315551      -2.423721      -0.200000                    
      -1.272318       9.898252      -2.462375      -0.006000                    
      -0.764353       9.861251      -3.425979       0.103000                    
      -0.534483       9.993898      -1.665868       0.103000                    
      -2.076070       8.612319      -2.260508      -0.006000                    
      -2.584046       8.649332      -1.296902       0.103000                    
      -2.813909       8.516675      -3.057006       0.103000                    
      -0.962163       7.195032      -2.299160      -0.200000                    
       2.383197       7.921718       3.064065      -0.200000                    
       3.695976       8.542639       4.132698      -0.006000                    
       4.394901       9.135639       3.542956       0.103000                    
       3.263284       9.164045       4.916642       0.103000                    
       4.436944       7.364339       4.767464      -0.006000                    
       3.738028       6.771339       5.357210       0.103000                    
       4.869645       6.742932       3.983524       0.103000                    
       5.749722       7.985260       5.836097      -0.200000                    
       1.070148      -2.076713       6.301751      -0.200000                    
       1.927852      -3.553495       5.723479      -0.006000                    
       2.084967      -4.233840       6.560363       0.103000                    
       1.326415      -4.048063       4.960838       0.103000                    
       3.280275      -3.157461       5.128107      -0.006000                    
       3.123150      -2.477116       4.291219       0.103000                    
       3.881711      -2.662894       5.890748       0.103000                    
       4.137978      -4.634243       4.549836      -0.200000                    
       9.440734      -1.539056      -5.564716      -0.200000                    
       8.505779      -1.393619      -4.029925      -0.006000                    
       8.907225      -2.088482      -3.292427       0.103000                    
       8.585526      -0.374874      -3.650766       0.103000                    
       7.035962      -1.724964      -4.294854      -0.006000                    
       6.634516      -1.030101      -5.032352       0.103000                    
       6.956216      -2.743709      -4.674013       0.103000                    
       6.101007      -1.579527      -2.760063      -0.200000                    
      -4.862892       5.266956      -2.445116      -0.200000                    
      -6.394341       6.202768      -2.272250      -0.006000                    
      -6.380888       7.051537      -2.955898       0.103000                    
      -7.242071       5.559516      -2.507916       0.103000                    
      -6.523132       6.708840      -0.834329      -0.006000                    
      -6.536580       5.860069      -0.150689       0.103000                    
      -5.675412       7.352083      -0.598664       0.103000                    
      -8.054583       7.644642      -0.661460      -0.200000                    
       6.612062      10.331470      -0.871059      -0.200000                    
       5.183549      10.984691       0.014169      -0.006000                    
       5.467817      11.220177       1.039707       0.103000                    
       4.830569      11.888686      -0.481955       0.103000                    
       4.066895       9.939018       0.022404      -0.006000                    
       3.782633       9.703535      -1.003121       0.103000                    
       4.419872       9.035026       0.518536       0.103000                    
       2.638392      10.592239       0.907635      -0.200000                    
      -2.091056      -4.990285      -4.268042      -0.200000                    
      -3.812147      -5.527614      -4.264891      -0.006000                    
      -3.853488      -6.615505      -4.316804       0.103000                    
      -4.297195      -5.188620      -3.349600       0.103000                    
      -4.534480      -4.932089      -5.474850      -0.006000                    
      -4.493140      -3.844200      -5.422937       0.103000                    
      -4.049432      -5.271083      -6.390141       0.103000                    
      -6.255572      -5.469428      -5.471697      -0.200000                    
       4.402541      -4.068553      -3.854913      -0.200000                    
       4.747456      -5.782753      -3.415133      -0.006000                    
       5.727086      -5.846583      -2.941655       0.103000                    
       3.985244      -6.141059      -2.723330       0.103000                    
       4.735014      -6.645679      -4.678305      -0.006000                    
       3.755384      -6.581848      -5.151782       0.103000                    
       5.497227      -6.287372      -5.370108       0.103000                    
       5.079929      -8.359879      -4.238524      -0.200000                    
       0.347493       9.777239       5.004240      -0.200000                    
      -0.471225       8.617773       6.116156      -0.006000                    
      -0.366034       8.964045       7.144245       0.103000                    
      -1.528791       8.553928       5.860434       0.103000                    
       0.171117       7.236458       5.975631      -0.006000                    
       0.065926       6.890186       4.947541       0.103000                    
       1.228683       7.300303       6.231352       0.103000                    
      -0.647601       6.076992       7.087547      -0.200000                    
       7.541722       6.689872       1.692949      -0.200000                    
       7.973806       8.103868       2.724822      -0.006000                    
       7.092137       8.726543       2.876032       0.103000                    
       8.340028       7.751860       3.689150       0.103000                    
       9.064732       8.924584       2.034386      -0.006000                    
       9.946402       8.301909       1.883176       0.103000                    
       8.698502       9.276593       1.070054       0.103000                    
       9.496813      10.338588       3.066244      -0.200000                    
       6.455426      -0.663151       5.716449      -0.200000                    
       6.998400      -1.983453       4.615110      -0.006000                    
       7.209114      -2.879786       5.198305       0.103000                    
       6.213549      -2.197758       3.889839       0.103000                    
       8.265944      -1.544791       3.879339      -0.006000                    
       8.055226      -0.648465       3.296155       0.103000                    
       9.050796      -1.330496       4.604612       0.103000                    
       8.808919      -2.865093       2.777999      -0.200000                    
      -7.321344       6.347907       3.166160      -0.200000                    
      -7.500001       4.565444       2.961597      -0.006000                    
      -6.556296       4.142594       2.617281       0.103000                    
      -7.773263       4.115531       3.916011       0.103000                    
      -8.593378       4.277468       1.931064      -0.006000                    
      -9.537079       4.700321       2.275393       0.103000                    
      -8.320121       4.727385       0.976659       0.103000                    
      -8.772040       2.494999       1.726512      -0.200000                    
      -3.865906       1.810159      -8.549309      -0.200000                    
      -3.488415       0.102923      -8.109171      -0.006000                    
      -4.384223      -0.507868      -8.220615       0.103000                    
      -2.705362      -0.277055      -8.765222       0.103000                    
      -3.009478       0.044552      -6.657413      -0.006000                    
      -2.113671       0.655333      -6.545966       0.103000                    
      -3.792531       0.424531      -6.001362       0.103000                    
      -2.631989      -1.662693      -6.217272      -0.200000                    
      -2.107783      14.283293       1.034316      -0.200000                    
      -1.152037      12.757751       0.932964      -0.006000                    
      -0.816649      12.606299      -0.092986       0.103000                    
      -0.286610      12.826454       1.591956       0.103000                    
      -2.026861      11.578458       1.362277      -0.006000                    
      -2.362239      11.729911       2.388230       0.103000                    
      -2.892283      11.509754       0.703276       0.103000                    
      -1.071115      10.052917       1.260925      -0.200000                    
       5.460126       4.082551       9.013638      -0.200000                    
       6.189169       4.818523       7.537930      -0.006000                    
       5.560172       5.638664       7.191988       0.103000                    
       7.183465       5.197473       7.773913       0.103000                    
       6.295221       3.759417       6.439093      -0.006000                    
       6.924218       2.939267       6.785038       0.103000                    
       5.300926       3.380458       6.203112       0.103000                    
       7.024264       4.495380       4.963387      -0.200000                    
       5.428883      -2.421733      -7.021646      -0.200000                    
       3.868990      -1.701451      -7.568393      -0.006000                    
       3.752481      -0.710557      -7.129593       0.103000                    
       3.867193      -1.620246      -8.655296       0.103000                    
       2.710432      -2.595481      -7.122442      -0.006000                    
       2.826931      -3.586375      -7.561244       0.103000                    
       2.712230      -2.676676      -6.035540       0.103000                    
       1.150531      -1.875189      -7.669193      -0.200000                    
     -10.564627      -1.471677       1.751869      -0.200000                    
      -9.431307      -1.678284       0.364827      -0.006000                    
      -8.408540      -1.512925       0.703272       0.103000                    
      -9.523783      -2.688838      -0.032835       0.103000                    
      -9.775460      -0.666613      -0.729925      -0.006000                    
     -10.798226      -0.831972      -1.068370       0.103000                    
      -9.682993       0.343941      -0.332266       0.103000                    
      -8.642140      -0.873220      -2.116966      -0.200000                    
      -5.750561      -6.140065       4.648280      -0.200000                    
      -6.666409      -4.617774       4.956083      -0.006000                    
      -6.747109      -4.048481       4.030162       0.103000                    
      -7.664036      -4.861213       5.321308       0.103000                    
      -5.929667      -3.782648       6.004943      -0.006000                    
      -5.848962      -4.351937       6.930876       0.103000                    
      -4.932039      -3.539198       5.639716       0.103000                    
      -6.845514      -2.260347       6.312744      -0.200000                    
      11.233745       4.386107      -0.070896      -0.200000                    
      10.861716       2.657889       0.283576      -0.006000                    
       9.801641       2.554168       0.514661       0.103000                    
      11.105673       2.047713      -0.585978       0.103000                    
      11.692067       2.192834       1.481356      -0.006000                    
      12.752143       2.296555       1.250271       0.103000                    
      11.448114       2.803008       2.350902       0.103000                    
      11.320039       0.464616       1.835828      -0.200000                    
       2.052129      10.022695      -3.901249      -0.200000                    
       2.583337      10.552273      -5.540833      -0.006000                    
       2.525296      11.638551      -5.608597       0.103000                    
       3.611056      10.231760      -5.711199       0.103000                    
       1.672574       9.926505      -6.598789      -0.006000                    
       1.730606       8.840236      -6.531030       0.103000                    
       0.644854      10.247018      -6.428422       0.103000                    
       2.203781      10.456082      -8.238373      -0.200000                    
       3.477657      -7.856887       2.202984      -0.200000                    
       4.102457      -9.289574       1.304127      -0.006000                    
       5.192202      -9.270247       1.301511       0.103000                    
       3.756200     -10.202282       1.788905       0.103000                    
       3.588847      -9.251555      -0.136402      -0.006000                    
       2.499102      -9.270882      -0.133786       0.103000                    
       3.935103      -8.338848      -0.621180       0.103000                    
       4.213636     -10.684242      -1.035262      -0.200000                    
       1.690123     -11.683565       5.231942      -0.200000                    
       0.903424     -10.101459       4.872837      -0.006000                    
       0.614472     -10.069236       3.822405       0.103000                    
       0.017622      -9.985841       5.497293       0.103000                    
       1.885262      -8.965533       5.166152      -0.006000                    
       2.174210      -8.997753       6.216592       0.103000                    
       2.771064      -9.081150       4.541696       0.103000                    
       1.098562      -7.383426       4.807047      -0.200000                    
      -2.905641      -9.706882       5.008832      -0.200000                    
      -4.288857      -9.685148       3.852486      -0.006000                    
      -4.444310     -10.687103       3.452702       0.103000                    
      -5.190046      -9.356259       4.369774       0.103000                    
      -3.979472      -8.721366       2.705423      -0.006000                    
      -3.824029      -7.719411       3.105203       0.103000                    
      -3.078284      -9.050255       2.188135       0.103000                    
      -5.362689      -8.699631       1.549078      -0.200000                    
       1.176455      -7.871744      -4.659222      -0.200000                    
       0.485461      -7.655311      -6.310457      -0.006000                    
       0.451202      -6.593479      -6.553936       0.103000                    
       1.110113      -8.174913      -7.036958       0.103000                    
      -0.930496      -8.233055      -6.350453      -0.006000                    
      -0.896237      -9.294897      -6.106973       0.103000                    
      -1.555141      -7.713451      -5.623941       0.103000                    
      -1.621480      -8.016623      -8.001685      -0.200000                    
      -8.259064       1.321755       5.287544      -0.200000                    
      -7.609868       1.634678       6.940280      -0.006000                    
      -7.851174       2.654860       7.238546       0.103000                    
      -8.057387       0.934279       7.645333       0.103000                    
      -6.091073       1.451323       6.934702      -0.006000                    
      -5.849765       0.431149       6.636434       0.103000                    
      -5.643552       2.151730       6.229645       0.103000                    
      -5.441875       1.764255       8.587434      -0.200000                    
      -1.675266       0.560917      10.764736      -0.200000                    
      -1.739735      -0.149947       9.109022      -0.006000                    
      -1.825175       0.649529       8.373177       0.103000                    
      -0.829727      -0.720057       8.922437       0.103000                    
      -2.952550      -1.075787       8.998435      -0.006000                    
      -2.867100      -1.875253       9.734282       0.103000                    
      -3.862549      -0.505678       9.185025       0.103000                    
      -3.017010      -1.786651       7.342727      -0.200000                    
      -6.757937     -10.703999      -3.042613      -0.200000                    
      -6.190202      -9.014414      -2.770789      -0.006000                    
      -5.496833      -8.994671      -1.930073       0.103000                    
      -5.686018      -8.651750      -3.666450       0.103000                    
      -7.389988      -8.116654      -2.462753      -0.006000                    
      -8.083359      -8.136409      -3.303467       0.103000                    
      -7.894174      -8.479330      -1.567089       0.103000                    
      -6.822254      -6.427081      -2.190927      -0.200000                    
      -1.068715       8.503511     -10.633169      -0.200000                    
      -0.287469       7.950427      -9.105246      -0.006000                    
       0.314917       7.064329      -9.304988       0.103000                    
       0.350533       8.743462      -8.715351       0.103000                    
      -1.366100       7.611436      -8.074726      -0.006000                    
      -1.968487       8.497535      -7.874982       0.103000                    
      -2.004107       6.818405      -8.464610       0.103000                    
      -0.584856       7.058341      -6.546800      -0.200000                    
     -10.278518      -4.287763      -2.324665      -0.200000                    
      -9.224681      -4.008915      -3.760833      -0.006000                    
      -8.357139      -3.418603      -3.466085       0.103000                    
      -8.893515      -4.967370      -4.160362       0.103000                    
     -10.013273      -3.255064      -4.833303      -0.006000                    
     -10.880816      -3.845376      -5.128052       0.103000                    
     -10.344448      -2.296599      -4.433781       0.103000                    
      -8.959441      -2.976213      -6.269463      -0.200000                    
       4.541536       1.518277      -9.982840      -0.200000                    