%nprocshared=4                                                                       
%mem=8GB                                                                             
#P pop=chelpg cam-b3lyp/gen scf=qc int=ultrafine charge td(nstates=10)               
                                                                                     
pNA CAM-B3LYP def2-TZVPD Single point - solvent def2-SV(P)                           
                                                                                     
0 1                                                                                  
 C       1.389235       0.000000      -0.000000                                 
 C       0.000000       0.000000      -0.000000                                 
 C      -0.711164       1.193419       0.000000                                 
 C      -0.034074       2.386367       0.000141                                 
 C       1.370482       2.412065       0.000933                                 
 C       2.067428       1.192342       0.000144                                 
 H       1.924301      -0.937208       0.000967                                 
 H      -1.790186       1.173300       0.000962                                 
 H      -0.583208       3.318526      -0.000772                                 
 H       3.149318       1.197759      -0.000767                                 
 N      -0.711160      -1.251627       0.001756                                 
 O      -1.932441      -1.229701       0.002542                                 
 O      -0.067142      -2.289538       0.002483                                 
 N       2.040236       3.590780      -0.024683                                 
 H       1.546357       4.451509       0.132529                                 
 H       3.032458       3.607145       0.132525                                 
Cl       5.125784       4.891619       0.141935                                 
 C       6.731553       4.215261      -0.321720                                 
 H       6.616801       3.571125      -1.193408                                 
 H       7.414554       5.030661      -0.559605                                 
 C       7.297156       3.400361       0.842920                                 
 H       7.411910       4.044505       1.714601                                 
 H       6.614155       2.584962       1.080804                                 
Cl       8.902936       2.724004       0.379268                                 
Cl      -0.541689       4.319189      -5.037116                                 
 C       0.109105       4.655544      -3.389610                                 
 H      -0.676166       5.088229      -2.769863                                 
 H       0.456878       3.725940      -2.939290                                 
 C       1.276170       5.639155      -3.493370                                 
 H       2.061441       5.206470      -4.113117                                 
 H       0.928398       6.568759      -3.943690                                 
Cl       1.926965       5.975510      -1.845864                                 
Cl      -1.914592      -3.098635      -4.632744                                 
 C      -1.168672      -1.461499      -4.513052                                 
 H      -0.136462      -1.556008      -4.176074                                 
 H      -1.189316      -0.980204      -5.490754                                 
 C      -1.955958      -0.614401      -3.511554                                 
 H      -2.988168      -0.519892      -3.848534                                 
 H      -1.935315      -1.095703      -2.533846                                 
Cl      -1.210038       1.022735      -3.391863                                 
Cl      -0.317050      -1.647908       4.023904                                 
 C      -1.348476      -2.830008       3.135222                                 
 H      -2.157657      -2.300513       2.632398                                 
 H      -0.744217      -3.356436       2.396513                                 
 C      -1.936579      -3.838168       4.124212                                 
 H      -1.127386      -4.367670       4.627033                                 
 H      -2.540826      -3.311746       4.862917                                 
Cl      -2.967992      -5.020267       3.235519                                 
Cl       4.645299       2.145993      -2.172479                                 
 C       3.329557       2.142253      -3.405203                                 
 H       2.374354       2.337681      -2.918052                                 
 H       3.524361       2.916442      -4.147239                                 
 C       3.280173       0.777218      -4.094147                                 
 H       4.235376       0.581790      -4.581298                                 
 H       3.085369       0.003029      -3.352111                                 
Cl       1.964433       0.773470      -5.326878                                 
                                                                                
      -3.791636       5.076233      -1.315897      -0.200000                    
      -3.523916       3.656580      -2.394678      -0.006000                    
      -2.690841       3.862541      -3.066631       0.103000                    
      -3.295173       2.778800      -1.790417       0.103000                    
      -4.787842       3.394540      -3.215751      -0.006000                    
      -5.620921       3.188579      -2.543784       0.103000                    
      -5.016578       4.272327      -3.820003       0.103000                    
      -4.520127       1.974887      -4.294518      -0.200000                    
       8.620815      -1.742818      -1.118721      -0.200000                    
       7.250407      -0.913556      -0.290946      -0.006000                    
       7.589949      -0.516928       0.665795       0.103000                    
       6.889098      -0.096692      -0.915509       0.103000                    
       6.117157      -1.913644      -0.054476      -0.006000                    
       5.777605      -2.310272      -1.011220       0.103000                    
       6.478466      -2.730508       0.570087       0.103000                    
       4.746749      -1.084382       0.773300      -0.200000                    
      -3.922279       2.431487       1.782519      -0.200000                    
      -3.179146       1.932767       3.347749      -0.006000                    
      -2.097072       1.870481       3.232962       0.103000                    
      -3.421613       2.667219       4.115690       0.103000                    
      -3.727277       0.565190       3.759654      -0.006000                    
      -4.809341       0.627476       3.874443       0.103000                    
      -3.484811      -0.169263       2.991712       0.103000                    
      -2.984144       0.066469       5.324883      -0.200000                    
      -4.871431       7.249937       1.509846      -0.200000                    
      -3.791334       6.022086       2.269196      -0.006000                    
      -3.785648       6.161683       3.350113       0.103000                    
      -4.155499       5.022173       2.033648       0.103000                    
      -2.370536       6.187649       1.726728      -0.006000                    
      -2.376221       6.048052       0.645810       0.103000                    
      -2.006369       7.187569       1.962268       0.103000                    
      -1.290427       4.959805       2.486073      -0.200000                    
      -1.145404      -6.338398      -2.255592      -0.200000                    
      -2.817550      -5.684221      -2.419548      -0.006000                    
      -2.844050      -4.952100      -3.226536       0.103000                    
      -3.506092      -6.498553      -2.644704       0.103000                    
      -3.233348      -5.013177      -1.109123      -0.006000                    
      -3.206840      -5.745296      -0.302131       0.103000                    
      -2.544808      -4.198844      -0.883965       0.103000                    
      -4.905485      -4.358999      -1.273075      -0.200000                    
       0.196642       3.728872       5.524801      -0.200000                    
       1.845389       4.076306       4.883120      -0.006000                    
       1.817449       4.984829       4.281666       0.103000                    
       2.537845       4.211433       5.713888       0.103000                    
       2.312289       2.905570       4.016100      -0.006000                    
       2.340219       1.997033       4.617553       0.103000                    
       1.619834       2.770436       3.185326       0.103000                    
       3.961038       3.252997       3.374413      -0.200000                    
       0.443088       8.019566       2.759225      -0.200000                    
       1.776768       8.375186       1.599192      -0.006000                    
       1.614493       7.817879       0.676681       0.103000                    
       1.793630       9.442842       1.380786       0.103000                    
       3.113655       7.960341       2.216462      -0.006000                    
       3.275930       8.517647       3.138973       0.103000                    
       3.096783       6.892683       2.434865       0.103000                    
       4.447337       8.315953       1.056421      -0.200000                    
      -7.282216      -1.590662       1.997852      -0.200000                    
      -6.901120      -0.117097       1.031216      -0.006000                    
      -7.801918       0.485815       0.916987       0.103000                    
      -6.135925       0.465946       1.543535       0.103000                    
      -6.387064      -0.531423      -0.348814      -0.006000                    
      -5.486278      -1.134342      -0.234581       0.103000                    
      -7.152270      -1.114473      -0.861129       0.103000                    
      -6.005970       0.942136      -1.315443      -0.200000                    
       0.921174      -8.196245      -0.307422      -0.200000                    
       0.544260      -7.088396       1.064241      -0.006000                    
      -0.125172      -6.299676       0.721184       0.103000                    
       0.063335      -7.650949       1.864363       0.103000                    
       1.839839      -6.465229       1.587234      -0.006000                    
       2.509281      -7.253949       1.930292       0.103000                    
       2.320766      -5.902668       0.787104       0.103000                    
       1.462927      -5.357373       2.958889      -0.200000                    
       2.090499      -3.219434      -3.468153      -0.200000                    
       1.619558      -4.783491      -4.231576      -0.006000                    
       0.543927      -4.927820      -4.130989       0.103000                    
       1.887001      -4.767484      -5.288055       0.103000                    
       2.354677      -5.931545      -3.537348      -0.006000                    
       3.430307      -5.787209      -3.637928       0.103000                    
       2.087232      -5.947545      -2.480861       0.103000                    
       1.883734      -7.495595      -4.300764      -0.200000                    
      -0.933143       7.485548      -1.366124      -0.200000                    
      -1.549782       9.142911      -1.014321      -0.006000                    
      -1.652321       9.271585       0.063119       0.103000                    
      -0.849404       9.881691      -1.403675       0.103000                    
      -2.913190       9.332098      -1.681977      -0.006000                    
      -2.810651       9.203424      -2.759418       0.103000                    
      -3.613568       8.593318      -1.292624       0.103000                    
      -3.529831      10.989469      -1.330167      -0.200000                    
       5.095878       8.626777      -3.761095      -0.200000                    
       3.759046       8.957764      -2.597373      -0.006000                    
       2.802743       8.905185      -3.117661       0.103000                    
       3.779892       8.215946      -1.799120       0.103000                    
       3.937563      10.354561      -1.999509      -0.006000                    
       4.893858      10.407132      -1.479230       0.103000                    
       3.916710      11.096372      -2.797770       0.103000                    
       2.600723      10.685542      -0.835796      -0.200000                    
       5.559451      -5.674277       2.356752      -0.200000                    
       5.030155      -4.399574       3.516868      -0.006000                    
       4.810787      -3.481073       2.972617       0.103000                    
       4.135107      -4.734104       4.041133       0.103000                    
       6.145868      -4.137181       4.530110      -0.006000                    
       6.365248      -5.055675       5.074357       0.103000                    
       7.040926      -3.802636       4.005847       0.103000                    
       5.616583      -2.862471       5.690221      -0.200000                    
       8.149780       0.267061       4.004013      -0.200000                    
       6.686849       1.152811       4.575138      -0.006000                    
       6.770356       2.205303       4.304548       0.103000                    
       5.798718       0.726839       4.108562       0.103000                    
       6.574587       1.025099       6.095471      -0.006000                    
       6.491089      -0.027400       6.366070       0.103000                    
       7.462728       1.451071       6.562050       0.103000                    
       5.111665       1.910843       6.666606      -0.200000                    
       6.601530      -0.597781      -3.826422      -0.200000                    
       7.852184      -0.382642      -5.107283      -0.006000                    
       7.578024      -0.967739      -5.985032       0.103000                    
       7.917324       0.670987      -5.378500       0.103000                    
       9.207808      -0.858004      -4.581297      -0.006000                    
       9.481977      -0.272907      -3.703545       0.103000                    
       9.142678      -1.911633      -4.310076       0.103000                    
      10.458472      -0.642865      -5.862154      -0.200000                    
       8.649957      -6.085849      -2.905977      -0.200000                    
       7.241712      -5.448079      -1.978077      -0.006000                    
       7.573578      -5.120875      -0.992822       0.103000                    
       6.805422      -4.604812      -2.513337       0.103000                    
       6.192401      -6.550341      -1.822085      -0.006000                    
       5.860533      -6.877538      -2.807333       0.103000                    
       6.628690      -7.393601      -1.286819       0.103000                    
       4.784156      -5.912557      -0.894186      -0.200000                    
       1.614192       0.645526       7.883030      -0.200000                    
       2.042503      -0.766766       6.847215      -0.006000                    
       1.699257      -0.587755       5.828382       0.103000                    
       3.123807      -0.903451       6.847832       0.103000                    
       1.369614      -2.025551       7.397663      -0.006000                    
       1.712868      -2.204568       8.416506       0.103000                    
       0.288309      -1.888873       7.397053       0.103000                    
       1.797924      -3.437849       6.361855      -0.200000                    
       7.073740       4.774308      -4.022053      -0.200000                    
       8.661159       3.983774      -4.347654      -0.006000                    
       8.586547       3.376131      -5.249424       0.103000                    
       9.426106       4.747695      -4.486276       0.103000                    
       9.039675       3.092907      -3.162974      -0.006000                    
       9.114287       3.700550      -2.261203       0.103000                    
       8.274730       2.328992      -3.024359       0.103000                    
      10.627105       2.302372      -3.488572      -0.200000                    
      -5.959911      -5.173066       4.017065      -0.200000                    
      -6.730099      -5.678707       2.467195      -0.006000                    
      -6.135815      -5.313450       1.629740       0.103000                    
      -6.785511      -6.766465       2.426628       0.103000                    
      -8.141086      -5.093344       2.384174      -0.006000                    
      -8.735368      -5.458594       3.221622       0.103000                    
      -8.085684      -4.005587       2.424739       0.103000                    
      -8.911283      -5.598985       0.834302      -0.200000                    
      -7.361983       3.586219       0.629858      -0.200000                    
      -7.450529       4.912666      -0.588230      -0.006000                    
      -7.987381       5.760886      -0.163712       0.103000                    
      -6.442140       5.221473      -0.863456       0.103000                    
      -8.187993       4.414077      -1.832388      -0.006000                    
      -7.651137       3.565857      -2.256920       0.103000                    
      -9.196378       4.105269      -1.557176       0.103000                    
      -8.276530       5.740525      -3.050474      -0.200000                    
      -2.866643       6.586148      -4.627817      -0.200000                    
      -3.251754       6.404438      -6.379844      -0.006000                    
      -3.622401       7.351909      -6.770786       0.103000                    
      -2.351594       6.114742      -6.921821       0.103000                    
      -4.322466       5.326329      -6.557454      -0.006000                    
      -3.951832       4.378866      -6.166508       0.103000                    
      -5.222626       5.616025      -6.015477       0.103000                    
      -4.707589       5.144612      -8.309477      -0.200000                    
      -6.266264      -0.964687      -4.296203      -0.200000                    
      -5.795191      -1.635948      -5.901902      -0.006000                    
      -6.172067      -0.986753      -6.692121       0.103000                    
      -4.708800      -1.694698      -5.966876       0.103000                    
      -6.391601      -3.035306      -6.064478      -0.006000                    
      -6.014725      -3.684502      -5.274260       0.103000                    
      -7.477989      -2.976549      -5.999512       0.103000                    
      -5.920528      -3.706567      -7.670178      -0.200000                    
       7.426649      10.836885       4.465500      -0.200000                    
       6.882243       9.308449       3.679141      -0.006000                    
       5.949714       8.976829       4.135625       0.103000                    
       6.724044       9.483374       2.615038       0.103000                    
       7.951771       8.230481       3.864704      -0.006000                    
       8.884302       8.562095       3.408213       0.103000                    
       8.109970       8.055556       4.928807       0.103000                    
       7.407365       6.702030       3.078346      -0.200000                    
       8.428049       6.027545       6.548718      -0.200000                    
       6.799461       6.717924       6.897857      -0.006000                    
       6.587155       6.627919       7.963095       0.103000                    
       6.781128       7.769288       6.611061       0.103000                    
       5.740272       5.954022       6.101001      -0.006000                    
       5.952579       6.044034       5.035756       0.103000                    
       5.758604       4.902658       6.387797       0.103000                    
       4.111685       6.644406       6.450132      -0.200000                    
       1.633382      -8.615274       5.303900      -0.200000                    
       0.017412      -7.837358       5.489389      -0.006000                    
      -0.199188      -7.697088       6.548331       0.103000                    
       0.019909      -6.869833       4.987540       0.103000                    
      -1.054225      -8.732566       4.864481      -0.006000                    
      -0.837623      -8.872843       3.805533       0.103000                    
      -1.056720      -9.700098       5.366323       0.103000                    
      -2.670196      -7.954648       5.049969      -0.200000                    
      11.080186       5.918688      -2.887177      -0.200000                    
       9.568873       6.854844      -2.586338      -0.006000                    
       8.971742       6.883967      -3.497679       0.103000                    
       8.996612       6.375930      -1.791892       0.103000                    
       9.927770       8.281506      -2.166672      -0.006000                    
      10.524901       8.252375      -1.255337       0.103000                    
      10.500032       8.760412      -2.961124       0.103000                    
       8.416459       9.217654      -1.865839      -0.200000                    
       2.364241      -5.233944      -7.872646      -0.200000                    
       3.919140      -4.424962      -7.449931      -0.006000                    
       4.268769      -4.791022      -6.484691       0.103000                    
       4.663844      -4.646630      -8.214264       0.103000                    
       3.702621      -2.912502      -7.373126      -0.006000                    
       3.352990      -2.546448      -8.338359       0.103000                    
       2.957919      -2.690841      -6.608799       0.103000                    
       5.257508      -2.103527      -6.950407      -0.200000                    
      -2.800430      -8.616096       0.907078      -0.200000                    
      -4.243894      -9.694774       0.846148      -0.006000                    
      -4.031545     -10.617192       1.386490       0.103000                    
      -5.093806      -9.191147       1.306537       0.103000                    
      -4.574311     -10.022610      -0.611141      -0.006000                    
      -4.786670      -9.100191      -1.151484       0.103000                    
      -3.724404     -10.526235      -1.071516       0.103000                    
      -6.017778     -11.101278      -0.672064      -0.200000                    
      -7.729900       0.826742       4.803399      -0.200000                    
      -8.666594      -0.632812       5.296548      -0.006000                    
      -9.269932      -0.398437       6.173488       0.103000                    
      -9.318079      -0.940198       4.478622       0.103000                    
      -7.699697      -1.769716       5.632506      -0.006000                    
      -7.096348      -2.004090       4.755569       0.103000                    
      -7.048210      -1.462330       6.450433       0.103000                    
      -8.636382      -3.229277       6.125666      -0.200000                    
      -5.374691       1.422395      -7.845455      -0.200000                    
      -3.860438       1.078585      -8.761817      -0.006000                    
      -3.726497       0.000655      -8.851410       0.103000                    
      -3.928792       1.520308      -9.755855       0.103000                    
      -2.666584       1.680163      -8.018058      -0.006000                    
      -2.800525       2.758108      -7.928465       0.103000                    
      -2.598232       1.238448      -7.024014       0.103000                    
      -1.152331       1.336353      -8.934421      -0.200000                    
      -9.561272      -7.790902      -2.403206      -0.200000                    
      -8.456305      -6.521301      -3.049830      -0.006000                    
      -8.868773      -6.116671      -3.974003       0.103000                    
      -8.353270      -5.721329      -2.316792       0.103000                    
      -7.083364      -7.134976      -3.330504      -0.006000                    
      -6.670897      -7.539608      -2.406331       0.103000                    
      -7.186399      -7.934950      -4.063542       0.103000                    
      -5.978399      -5.865384      -3.977121      -0.200000                    
      -3.660185       7.535081       8.092314      -0.200000                    
      -4.321131       6.702718       6.635846      -0.006000                    
      -5.116802       7.307594       6.201135       0.103000                    
      -3.526139       6.566557       5.902800       0.103000                    
      -4.881494       5.337502       7.039093      -0.006000                    
      -4.085814       4.732619       7.473814       0.103000                    
      -5.676486       5.473662       7.772139       0.103000                    
      -5.542441       4.505132       5.582632      -0.200000                    
      -5.861615       0.255668       8.328662      -0.200000                    
      -4.835573       1.630573       7.773926      -0.006000                    
      -4.836953       1.668920       6.684680       0.103000                    
      -5.233275       2.564399       8.171099       0.103000                    
      -3.403668       1.432794       8.274854      -0.006000                    
      -3.402288       1.394447       9.364100       0.103000                    
      -3.005966       0.498968       7.877681       0.103000                    
      -2.377626       2.807685       7.720119      -0.200000                    
       1.806474       5.410767      -7.246320      -0.200000                    
       2.090787       5.137310      -9.005642      -0.006000                    
       1.294864       5.610605      -9.580449       0.103000                    
       3.050529       5.568475      -9.290154       0.103000                    
       2.102211       3.634723      -9.292822      -0.006000                    
       2.898134       3.161427      -8.718015       0.103000                    
       1.142468       3.203551      -9.008304       0.103000                    
       2.386527       3.361258     -11.052150      -0.200000                    
       7.970971       8.158613      -5.953752      -0.200000                    
       6.603931       7.189394      -6.619142      -0.006000                    
       6.377155       6.367091      -5.940647       0.103000                    
       5.725353       7.825500      -6.725856       0.103000                    
       6.995431       6.627799      -7.987232      -0.006000                    
       7.222206       7.450095      -8.665719       0.103000                    
       7.874009       5.991685      -7.880509       0.103000                    
       5.628389       5.658581      -8.652608      -0.200000                    
      11.723221      -7.109171       1.913606      -0.200000                    
      10.338203      -6.028582       2.319615      -0.006000                    
       9.436130      -6.626570       2.448530       0.103000                    
      10.554082      -5.492418       3.243649       0.103000                    
      10.125680      -5.024047       1.185537      -0.006000                    
      11.027752      -4.426059       1.056621       0.103000                    
       9.909799      -5.560204       0.261509       0.103000                    
       8.740652      -3.943458       1.591543      -0.200000                    
      -2.738107      13.521207       2.839031      -0.200000                    
      -2.568868      12.364723       4.211898      -0.006000                    
      -1.687756      12.623632       4.798872       0.103000                    
      -3.455279      12.418314       4.843812       0.103000                    
      -2.417694      10.943675       3.665888      -0.006000                    
      -3.298795      10.684757       3.078910       0.103000                    
      -1.531270      10.890084       3.033962       0.103000                    
      -2.248444       9.787184       5.038750      -0.200000                    
       3.215532      13.494235       4.448091      -0.200000                    
       2.073829      12.371673       3.619111      -0.006000                    
       2.604927      11.467897       3.320759       0.103000                    
       1.263597      12.109416       4.299335       0.103000                    
       1.496266      13.056015       2.378779      -0.006000                    
       0.965171      13.959784       2.677124       0.103000                    
       2.306499      13.318273       1.698556       0.103000                    
       0.354567      11.933453       1.549786      -0.200000                    
     -11.444606       0.140064      -1.092941      -0.200000                    