%nprocshared=4                                                                       
%mem=8GB                                                                             
#P pop=chelpg cam-b3lyp/gen scf=qc int=ultrafine charge td(nstates=10)               
                                                                                     
pNA CAM-B3LYP def2-TZVPD Single point - solvent def2-SV(P)                           
                                                                                     
0 1                                                                                  
 C       1.389235       0.000000      -0.000000                                 
 C       0.000000       0.000000      -0.000000                                 
 C      -0.711164       1.193419       0.000000                                 
 C      -0.034074       2.386367       0.000141                                 
 C       1.370482       2.412065       0.000933                                 
 C       2.067428       1.192342       0.000144                                 
 H       1.924301      -0.937208       0.000967                                 
 H      -1.790186       1.173300       0.000962                                 
 H      -0.583208       3.318526      -0.000772                                 
 H       3.149318       1.197759      -0.000767                                 
 N      -0.711160      -1.251627       0.001756                                 
 O      -1.932441      -1.229701       0.002542                                 
 O      -0.067142      -2.289538       0.002483                                 
 N       2.040236       3.590780      -0.024683                                 
 H       1.546357       4.451509       0.132529                                 
 H       3.032458       3.607145       0.132525                                 
Cl      -0.629056      -6.401964      -0.127235                                 
 C      -1.593344      -6.094948      -1.619470                                 
 H      -1.385916      -6.873900      -2.353057                                 
 H      -2.655196      -6.100420      -1.373727                                 
 C      -1.212227      -4.732494      -2.201579                                 
 H      -1.419648      -3.953549      -1.467990                                 
 H      -0.150368      -4.727028      -2.447321                                 
Cl      -2.176507      -4.425485      -3.693813                                 
Cl      -1.187866      -1.212047       3.383365                                 
 C      -2.103063      -2.720250       3.755791                                 
 H      -1.566495      -3.293910       4.511405                                 
 H      -3.093142      -2.461467       4.130890                                 
 C      -2.243316      -3.558815       2.483993                                 
 H      -2.779888      -2.985162       1.728367                                 
 H      -1.253235      -3.817598       2.108884                                 
Cl      -3.158511      -5.067018       2.856409                                 
Cl       2.981801       6.321338       5.852452                                 
 C       2.091069       5.797398       4.374957                                 
 H       2.567803       4.910129       3.958521                                 
 H       1.058254       5.566666       4.635737                                 
 C       2.115645       6.922646       3.338831                                 
 H       1.638911       7.809915       3.755267                                 
 H       3.148464       7.153384       3.078063                                 
Cl       1.224919       6.398713       1.861338                                 
Cl      -3.115400       4.508101      -0.346334                                 
 C      -4.634579       4.535057       0.624356                                 
 H      -4.624464       3.711661       1.338406                                 
 H      -4.706332       5.480901       1.161124                                 
 C      -5.838202       4.385934      -0.308070                                 
 H      -5.848330       5.209329      -1.022124                                 
 H      -5.766462       3.440089      -0.844841                                 
Cl      -7.357395       4.412889       0.662616                                 
Cl       2.934552      -6.561827       2.912331                                 
 C       2.942714      -4.823563       2.433411                                 
 H       3.802899      -4.326853       2.882109                                 
 H       3.003337      -4.745775       1.347953                                 
 C       1.656385      -4.154235       2.921029                                 
 H       0.796193      -4.650953       2.472329                                 
 H       1.595752      -4.232018       4.006496                                 
Cl       1.664539      -2.415965       2.442108                                 
                                                                                
       0.394092      -2.510110      -4.858943      -0.200000                    
       1.004119      -1.216560      -3.760946      -0.006000                    
       0.296664      -0.387544      -3.747530       0.103000                    
       1.114074      -1.617021      -2.753227       0.103000                    
       2.361330      -0.719965      -4.262653      -0.006000                    
       3.068788      -1.548981      -4.276079       0.103000                    
       2.251384      -0.319510      -5.270381       0.103000                    
       2.971357       0.573586      -3.164657      -0.200000                    
      -4.781054       1.232380       0.729960      -0.200000                    
      -5.278040       0.088758       2.032306      -0.006000                    
      -4.856971      -0.896257       1.831366       0.103000                    
      -4.912900       0.451118       2.993190       0.103000                    
      -6.804306      -0.007919       2.070934      -0.006000                    
      -7.225375       0.977096       2.271874       0.103000                    
      -7.169453      -0.370273       1.110049       0.103000                    
      -7.301292      -1.151542       3.373281      -0.200000                    
       4.894166      -1.172872      -1.001923      -0.200000                    
       6.655002      -0.819272      -1.161250      -0.006000                    
       6.790783       0.212444      -1.485345       0.103000                    
       7.143725      -0.965067      -0.198017       0.103000                    
       7.273260      -1.763250      -2.194208      -0.006000                    
       7.137485      -2.794972      -1.870113       0.103000                    
       6.784544      -1.617462      -3.157440       0.103000                    
       9.034095      -1.409649      -2.353536      -0.200000                    
       5.790950       3.097939      -1.360802      -0.200000                    
       5.334066       4.187362      -2.722884      -0.006000                    
       4.336048       4.589042      -2.548129       0.103000                    
       6.049497       5.007020      -2.788563       0.103000                    
       5.343015       3.397246      -4.032845      -0.006000                    
       6.341026       2.995573      -4.207601       0.103000                    
       4.627587       2.577588      -3.967175       0.103000                    
       4.886126       4.486676      -5.394938      -0.200000                    
      -7.149717      -1.103658      -3.443202      -0.200000                    
      -6.152412       0.299357      -2.906697      -0.006000                    
      -6.420100       1.180066      -3.490345       0.103000                    
      -6.336715       0.493585      -1.850155       0.103000                    
      -4.670660      -0.018877      -3.115236      -0.006000                    
      -4.402975      -0.899587      -2.531578       0.103000                    
      -4.486358      -0.213105      -4.171779       0.103000                    
      -3.673349       1.384146      -2.578729      -0.200000                    
       7.293711      -1.355379       3.035407      -0.200000                    
       7.436055       0.429930       3.243640      -0.006000                    
       7.563308       0.663704       4.300572       0.103000                    
       8.298076       0.793604       2.684508       0.103000                    
       6.167521       1.106981       2.721317      -0.006000                    
       6.040270       0.873208       1.664375       0.103000                    
       5.305500       0.743307       3.280448       0.103000                    
       6.309868       2.892291       2.929540      -0.200000                    
       1.013450       2.295346       3.555077      -0.200000                    
       1.405679       1.024490       4.772442      -0.006000                    
       1.327158       0.040926       4.309444       0.103000                    
       2.421099       1.173563       5.139389       0.103000                    
       0.422928       1.117272       5.941193      -0.006000                    
       0.501445       2.100829       6.404178       0.103000                    
      -0.592491       0.968200       5.574236       0.103000                    
       0.815149      -0.153577       7.158555      -0.200000                    
       4.074417      11.334915      -1.208318      -0.200000                    
       3.499631       9.627298      -1.140124      -0.006000                    
       2.742518       9.529316      -0.362239       0.103000                    
       3.070093       9.349548      -2.102582       0.103000                    
       4.678154       8.704841      -0.823007      -0.006000                    
       5.435274       8.802817      -1.600890       0.103000                    
       5.107698       8.982585       0.139453       0.103000                    
       4.103376       6.997219      -0.754811      -0.200000                    
       9.265672       6.197263       0.005747      -0.200000                    
       8.155898       7.118857       1.087354      -0.006000                    
       8.740782       7.673347       1.821105       0.103000                    
       7.564054       7.814914       0.493083       0.103000                    
       7.223176       6.145135       1.810022      -0.006000                    
       6.638285       5.590652       1.076270       0.103000                    
       7.815013       5.449084       2.404292       0.103000                    
       6.113404       7.066730       2.891629      -0.200000                    
      -2.953627       9.853647      -2.526233      -0.200000                    
      -1.246021       9.883669      -3.104214      -0.006000                    
      -1.201389      10.363976      -4.081589       0.103000                    
      -0.632476      10.441296      -2.396723       0.103000                    
      -0.720281       8.451387      -3.216013      -0.006000                    
      -0.764911       7.971081      -2.238647       0.103000                    
      -1.333831       7.893767      -3.923515       0.103000                    
       0.987319       8.481417      -3.794005      -0.200000                    
      -1.699798       6.648743      -6.085216      -0.200000                    
      -2.417978       5.187276      -5.311107      -0.006000                    
      -2.211688       4.311521      -5.926280       0.103000                    
      -1.981330       5.047955      -4.322228       0.103000                    
      -3.930830       5.371793      -5.178583      -0.006000                    
      -4.137112       6.247558      -4.563419       0.103000                    
      -4.367462       5.511117      -6.167468       0.103000                    
      -4.649007       3.910327      -4.404485      -0.200000                    
      -3.298657      10.059335       2.628579      -0.200000                    
      -2.137702       9.120893       1.617401      -0.006000                    
      -1.685328       8.333108       2.219605       0.103000                    
      -2.666702       8.675950       0.774711       0.103000                    
      -1.044176      10.055320       1.096407      -0.006000                    
      -1.496544      10.843112       0.494205       0.103000                    
      -0.515171      10.500270       1.939098       0.103000                    
       0.116778       9.116878       0.085229      -0.200000                    
       4.794248      -0.262080       5.557212      -0.200000                    
       4.277381      -1.971876       5.311565      -0.006000                    
       3.516341      -2.013259       4.532450       0.103000                    
       5.136660      -2.572104       5.012690       0.103000                    
       3.700467      -2.522771       6.616956      -0.006000                    
       4.461503      -2.481381       7.396061       0.103000                    
       2.841191      -1.922542       6.915822       0.103000                    
       3.183595      -4.232560       6.371299      -0.200000                    
       0.075951       2.610469      -5.042822      -0.200000                    
       1.362261       3.430850      -6.003683      -0.006000                    
       1.665254       4.347449      -5.497733       0.103000                    
       2.221994       2.768019      -6.100911       0.103000                    
       0.821621       3.771138      -7.393757      -0.006000                    
       0.518625       2.854552      -7.899697       0.103000                    
      -0.038112       4.433969      -7.296528       0.103000                    
       2.107931       4.591519      -8.354617      -0.200000                    
      -6.649974      -3.283158      -0.116158      -0.200000                    
      -7.607544      -4.289216       1.033562      -0.006000                    
      -8.243018      -3.643478       1.639529       0.103000                    
      -8.228386      -4.989025       0.474290       0.103000                    
      -6.656292      -5.067623       1.944363      -0.006000                    
      -6.020817      -5.713361       1.338396       0.103000                    
      -6.035455      -4.367821       2.503633       0.103000                    
      -7.613859      -6.073680       3.094073      -0.200000                    
      11.292741       2.617314      -0.436161      -0.200000                    
      10.792120       2.031009      -2.066005      -0.006000                    
      11.341798       2.576224      -2.833171       0.103000                    
      11.008167       0.966116      -2.151504       0.103000                    
       9.291553       2.262920      -2.252622      -0.006000                    
       8.741878       1.717706      -1.485465       0.103000                    
       9.075505       3.327813      -2.167122       0.103000                    
       8.790932       1.676615      -3.882466      -0.200000                    
       5.781290     -10.437460      -0.219176      -0.200000                    
       5.011425      -8.808966      -0.298384      -0.006000                    
       4.839706      -8.438442       0.712147       0.103000                    
       5.668680      -8.121614      -0.830848       0.103000                    
       3.675723      -8.911752      -1.037099      -0.006000                    
       3.847442      -9.282275      -2.047630       0.103000                    
       3.018468      -9.599104      -0.504634       0.103000                    
       2.905866      -7.283263      -1.116305      -0.200000                    
      -1.450074      -7.234024      -7.382553      -0.200000                    
      -0.462971      -7.469422      -5.892210      -0.006000                    
      -1.120531      -7.692263      -5.052024       0.103000                    
       0.229332      -8.297876      -6.041742       0.103000                    
       0.326517      -6.192844      -5.596570      -0.006000                    
       0.984079      -5.970003      -6.436766       0.103000                    
      -0.365784      -5.364388      -5.447047       0.103000                    
       1.313629      -6.428234      -4.106236      -0.200000                    
       5.878465      -7.513300      -4.386756      -0.200000                    
       5.091825      -6.212149      -5.355834      -0.006000                    
       5.735780      -5.942358      -6.192783       0.103000                    
       4.134122      -6.569234      -5.734349       0.103000                    
       4.864406      -4.984540      -4.471734      -0.006000                    
       4.220452      -5.254331      -3.634785       0.103000                    
       5.822103      -4.627450      -4.093220       0.103000                    
       4.077759      -3.683383      -5.440814      -0.200000                    
      -5.733614       4.963163       7.971704      -0.200000                    
      -5.569702       3.286800       7.328342      -0.006000                    
      -5.216608       2.626362       8.120225       0.103000                    
      -6.538229       2.938760       6.969512       0.103000                    
      -4.566092       3.279593       6.173718      -0.006000                    
      -4.919181       3.940038       5.381847       0.103000                    
      -3.597558       3.627640       6.532550       0.103000                    
      -4.402175       1.603237       5.530368      -0.200000                    
       6.512049      -4.656033       1.711898      -0.200000                    
       7.444714      -5.148980       3.174117      -0.006000                    
       8.325414      -4.514765       3.274501       0.103000                    
       6.817070      -5.042206       4.058762       0.103000                    
       7.881339      -6.608315       3.032441      -0.006000                    
       7.000639      -7.242529       2.932057       0.103000                    
       8.508984      -6.715089       2.147796       0.103000                    
       8.814003      -7.101263       4.494659      -0.200000                    
       0.328099     -10.086691       1.974877      -0.200000                    
      -0.091469      -8.753009       3.113384      -0.006000                    
       0.489565      -7.865374       2.863487       0.103000                    
      -1.154500      -8.526489       3.032045       0.103000                    
       0.229143      -9.185226       4.545410      -0.006000                    
      -0.351889     -10.072862       4.795298       0.103000                    
       1.292181      -9.411754       4.626750       0.103000                    
      -0.190423      -7.851546       5.683908      -0.200000                    
       4.764299       7.886382      -4.211123      -0.200000                    
       3.738492       7.696242      -5.681673      -0.006000                    
       3.264710       6.714745      -5.670056       0.103000                    
       2.971176       8.470217      -5.692276       0.103000                    
       4.610447       7.826215      -6.931950      -0.006000                    
       5.084226       8.807711      -6.943557       0.103000                    
       5.377760       7.052240      -6.921337       0.103000                    
       3.584637       7.636075      -8.402490      -0.200000                    
       3.308137       3.445506       9.115548      -0.200000                    
       4.826347       2.828221       8.363894      -0.006000                    
       5.670577       3.046210       9.017898       0.103000                    
       4.747998       1.750923       8.218224       0.103000                    
       5.039993       3.510890       7.011600      -0.006000                    
       4.195756       3.292907       6.357595       0.103000                    
       5.118334       4.588195       7.157269       0.103000                    
       6.558196       2.893611       6.259945      -0.200000                    
      -4.980706       6.559737       3.635991      -0.200000                    
      -5.014664       7.174741       5.330541      -0.006000                    
      -5.260107       8.236665       5.327066       0.103000                    
      -5.767128       6.629544       5.900171       0.103000                    
      -3.641937       6.971299       5.974449      -0.006000                    
      -3.396500       5.909368       5.977921       0.103000                    
      -2.889486       7.516495       5.404815       0.103000                    
      -3.675908       7.586303       7.668996      -0.200000                    
      -3.656645      -6.724906       7.392567      -0.200000                    
      -3.799190      -5.177650       6.477973      -0.006000                    
      -3.373013      -4.366142       7.067677       0.103000                    
      -3.261171      -5.262460       5.533894       0.103000                    
      -5.274461      -4.884289       6.198959      -0.006000                    
      -5.700638      -5.695796       5.609255       0.103000                    
      -5.812476      -4.799471       7.143050       0.103000                    
      -5.417002      -3.337025       5.284378      -0.200000                    
       9.295527       9.143635      -2.092668      -0.200000                    
       9.038865       7.592165      -2.974691      -0.006000                    
       8.387603       6.944055      -2.388380       0.103000                    
       8.575950       7.795207      -3.940325       0.103000                    
      10.385743       6.899724      -3.191008      -0.006000                    
      11.037004       7.547833      -3.777320       0.103000                    
      10.848658       6.696681      -2.225375       0.103000                    
      10.129081       5.348253      -4.073032      -0.200000                    
      -3.226319       2.093843      -7.308701      -0.200000                    
      -4.181278       0.565827      -7.244181      -0.006000                    
      -4.262129       0.145024      -8.246347       0.103000                    
      -3.681460      -0.147918      -6.589428       0.103000                    
      -5.580678       0.861597      -6.701451      -0.006000                    
      -5.499825       1.282401      -5.699294       0.103000                    
      -6.080503       1.575348      -7.356205       0.103000                    
      -6.535644      -0.666413      -6.636932      -0.200000                    
       1.775297       0.435151      -8.109514      -0.200000                    
       0.555150      -0.865875      -7.845843      -0.006000                    
       0.979739      -1.826778      -8.136161       0.103000                    
       0.276433      -0.894875      -6.792560       0.103000                    
      -0.685951      -0.580395      -8.693526      -0.006000                    
      -1.110542       0.380522      -8.403210       0.103000                    
      -0.407235      -0.551381      -9.746809       0.103000                    
      -1.906100      -1.881407      -8.429853      -0.200000                    
      -6.779845      -6.454791      -6.422967      -0.200000                    
      -6.068649      -4.810613      -6.627246      -0.006000                    
      -6.048506      -4.552145      -7.685905       0.103000                    
      -6.673910      -4.082937      -6.086822       0.103000                    
      -4.642824      -4.799285      -6.072927      -0.006000                    
      -4.662974      -5.057747      -5.014269       0.103000                    
      -4.037560      -5.526961      -6.613361       0.103000                    
      -3.931625      -3.155107      -6.277215      -0.200000                    
      -2.821765     -10.336241       0.594761      -0.200000                    
      -1.798788     -10.928855      -0.766545      -0.006000                    
      -0.947926     -11.481370      -0.368193       0.103000                    
      -2.389638     -11.583431      -1.407151       0.103000                    
      -1.295210      -9.736772      -1.582457      -0.006000                    
      -2.146067      -9.184249      -1.980807       0.103000                    
      -0.704360      -9.082194      -0.941851       0.103000                    
      -0.272233     -10.329385      -2.943762      -0.200000                    
      -6.716927      -7.419942      -0.597768      -0.200000                    
      -5.319011      -8.136319      -1.482952      -0.006000                    
      -4.388298      -7.765624      -1.053690       0.103000                    
      -5.351990      -9.222327      -1.396695       0.103000                    
      -5.392716      -7.740068      -2.958734      -0.006000                    
      -6.323431      -8.110764      -3.387996       0.103000                    
      -5.359744      -6.654068      -3.044992       0.103000                    
      -3.994803      -8.456446      -3.843909      -0.200000                    
      10.235682       3.215162       4.002749      -0.200000                    
       9.890109       3.942363       5.616007      -0.006000                    
       9.388494       3.207900       6.245971       0.103000                    
      10.825527       4.246022       6.085837       0.103000                    
       8.987368       5.165030       5.441390      -0.006000                    
       9.488982       5.899494       4.811427       0.103000                    
       8.051950       4.861372       4.971561       0.103000                    
       8.641793       5.892232       7.054649      -0.200000                    
      -5.745021       8.116974      -1.520643      -0.200000                    
      -6.590548       9.135230      -0.296213      -0.006000                    
      -7.530665       9.497906      -0.711646       0.103000                    
      -6.792135       8.540453       0.594588       0.103000                    
      -5.705065      10.325946       0.075937      -0.006000                    
      -4.764946       9.963271       0.491360       0.103000                    
      -5.503478      10.920723      -0.814864       0.103000                    
      -6.550592      11.344203       1.300367      -0.200000                    
     -11.552457      -3.914226      -3.004380      -0.200000                    
      -9.965018      -4.495834      -3.631019      -0.006000                    
     -10.027527      -5.562676      -3.845261       0.103000                    
      -9.714569      -3.955721      -4.543987       0.103000                    
      -8.880880      -4.250001      -2.580027      -0.006000                    
      -8.818372      -3.183160      -2.365784       0.103000                    
      -9.131329      -4.790115      -1.667059       0.103000                    
      -7.293447      -4.831617      -3.206668      -0.200000                    
      -0.465662       4.732678       7.136310      -0.200000                    
      -1.469182       3.913727       8.390533      -0.006000                    
      -2.168568       4.630078       8.821371       0.103000                    
      -2.023584       3.093764       7.934196       0.103000                    
      -0.560474       3.363699       9.491504      -0.006000                    
       0.138908       2.647341       9.060657       0.103000                    
      -0.006073       4.183661       9.947844       0.103000                    
      -1.563998       2.544740      10.745718      -0.200000                    
       6.403563       3.698389      -8.896615      -0.200000                    
       5.540026       2.215195      -8.344032      -0.006000                    
       4.610754       2.498358      -7.849859       0.103000                    
       5.316816       1.583008      -9.203379       0.103000                    
       6.425317       1.445801      -7.361868      -0.006000                    
       7.354598       1.162633      -7.856050       0.103000                    
       6.648529       2.077989      -6.502531       0.103000                    
       5.561794      -0.037391      -6.809282      -0.200000                    
      -0.576513       9.752600       4.895566      -0.200000                    
      -1.352204      10.044552       6.496785      -0.006000                    
      -1.550987      11.109581       6.615691       0.103000                    
      -2.289574       9.491255       6.552989       0.103000                    
      -0.415243       9.573768       7.610724      -0.006000                    
      -0.216454       8.508745       7.491819       0.103000                    
       0.522127      10.127064       7.554520       0.103000                    
      -1.190927       9.865727       9.211946      -0.200000                    
     -11.727629       5.892748      -3.548185      -0.200000                    