%nprocshared=4                                                                       
%mem=8GB                                                                             
#P pop=chelpg cam-b3lyp/gen scf=qc int=ultrafine charge td(nstates=10)               
                                                                                     
pNA CAM-B3LYP def2-TZVPD Single point - solvent def2-SV(P)                           
                                                                                     
0 1                                                                                  
 C       1.389235       0.000000      -0.000000                                 
 C       0.000000       0.000000      -0.000000                                 
 C      -0.711164       1.193419       0.000000                                 
 C      -0.034074       2.386367       0.000141                                 
 C       1.370482       2.412065       0.000933                                 
 C       2.067428       1.192342       0.000144                                 
 H       1.924301      -0.937208       0.000967                                 
 H      -1.790186       1.173300       0.000962                                 
 H      -0.583208       3.318526      -0.000772                                 
 H       3.149318       1.197759      -0.000767                                 
 N      -0.711160      -1.251627       0.001756                                 
 O      -1.932441      -1.229701       0.002542                                 
 O      -0.067142      -2.289538       0.002483                                 
 N       2.040236       3.590780      -0.024683                                 
 H       1.546357       4.451509       0.132529                                 
 H       3.032458       3.607145       0.132525                                 
Cl       1.936933       6.480628      -0.699564                                 
 C       3.353435       5.817153      -1.596383                                 
 H       3.981457       5.245918      -0.912827                                 
 H       3.003960       5.166994      -2.398337                                 
 C       4.165172       6.969129      -2.191715                                 
 H       3.537144       7.540358      -2.875278                                 
 H       4.514646       7.619288      -1.389762                                 
Cl       5.581667       6.305648      -3.088539                                 
Cl      -3.863590       0.198489      -3.074758                                 
 C      -4.686779      -0.588158      -1.676740                                 
 H      -4.040916      -0.539497      -0.800138                                 
 H      -5.622911      -0.070485      -1.467787                                 
 C      -4.978249      -2.051578      -2.014135                                 
 H      -5.624118      -2.100227      -2.890741                                 
 H      -4.042123      -2.569238      -2.223092                                 
Cl      -5.801444      -2.838213      -0.616121                                 
Cl      -3.531457      -5.112853       1.522281                                 
 C      -1.783485      -4.691295       1.656030                                 
 H      -1.192837      -5.605184       1.718249                                 
 H      -1.478960      -4.120599       0.778827                                 
 C      -1.556350      -3.851297       2.914278                                 
 H      -2.147013      -2.937415       2.852062                                 
 H      -1.860883      -4.421988       3.791484                                 
Cl       0.191606      -3.429746       3.048031                                 
Cl      -1.870847       8.313103       4.957957                                 
 C      -0.425140       7.828116       3.995870                                 
 H      -0.229183       8.578950       3.230484                                 
 H       0.439281       7.746315       4.654676                                 
 C      -0.686704       6.476613       3.328485                                 
 H      -0.882669       5.725784       4.093874                                 
 H      -1.551125       6.558414       2.669678                                 
Cl       0.759004       5.991632       2.366389                                 
Cl       4.547392       4.630650       7.105026                                 
 C       4.099273       5.067289       5.414048                                 
 H       3.152563       5.607330       5.416724                                 
 H       4.876582       5.698305       4.983339                                 
 C       3.956626       3.793311       4.579188                                 
 H       4.903335       3.253264       4.576520                                 
 H       3.179316       3.162289       5.009904                                 
Cl       3.508508       4.229950       2.888210                                 
                                                                                
       0.526372       0.642884       3.376944      -0.200000                    
      -0.302912       2.214326       3.683019      -0.006000                    
       0.103880       2.670381       4.585516       0.103000                    
      -0.143523       2.880690       2.835404       0.103000                    
      -1.802389       1.972460       3.865944      -0.006000                    
      -2.209176       1.516410       2.963453       0.103000                    
      -1.961779       1.306090       4.713566       0.103000                    
      -2.631680       3.543908       4.172021      -0.200000                    
       2.214422      -4.965514      -3.495327      -0.200000                    
       2.802710      -3.551539      -2.543783      -0.006000                    
       2.885147      -2.682785      -3.196760       0.103000                    
       2.099212      -3.336432      -1.739557       0.103000                    
       4.174627      -3.872998      -1.948054      -0.006000                    
       4.092196      -4.741747      -1.295071       0.103000                    
       4.878138      -4.088106      -2.752277       0.103000                    
       4.762920      -2.459018      -0.996504      -0.200000                    
       6.110413       1.286721      -6.332466      -0.200000                    
       5.819905       2.178961      -4.792824      -0.006000                    
       6.758750       2.280047      -4.248482       0.103000                    
       5.420543       3.168285      -5.015738       0.103000                    
       4.815503       1.405210      -3.936758      -0.006000                    
       3.876656       1.304118      -4.481092       0.103000                    
       5.214857       0.415875      -3.713843       0.103000                    
       4.524994       2.297451      -2.397116      -0.200000                    
      -7.002983       3.789975      -1.967522      -0.200000                    
      -5.289845       3.653120      -1.422229      -0.006000                    
      -4.886705       2.688018      -1.728794       0.103000                    
      -4.700434       4.452504      -1.871152       0.103000                    
      -5.229002       3.769652       0.101933      -0.006000                    
      -5.632141       4.734761       0.408491       0.103000                    
      -5.818412       2.970275       0.550848       0.103000                    
      -3.515865       3.632797       0.647225      -0.200000                    
       3.452304      -4.461522       2.744040      -0.200000                    
       3.689416      -2.680254       2.891280      -0.006000                    
       3.906304      -2.259946       1.909307       0.103000                    
       2.783045      -2.224505       3.289689       0.103000                    
       4.859182      -2.397889       3.835895      -0.006000                    
       4.642301      -2.818202       4.817864       0.103000                    
       5.765553      -2.853638       3.437486       0.103000                    
       5.096294      -0.616616       3.983128      -0.200000                    
       5.988690       2.852704       0.689190      -0.200000                    
       7.592062       3.677083       0.666653      -0.006000                    
       7.446048       4.756901       0.691440       0.103000                    
       8.171782       3.368534       1.536534       0.103000                    
       8.344543       3.293953      -0.609007      -0.006000                    
       8.490562       2.214140      -0.633788       0.103000                    
       7.764829       3.602506      -1.478881       0.103000                    
       9.947906       4.118336      -0.631540      -0.200000                    
      -4.099730      -0.006735       1.884231      -0.200000                    
      -5.324602      -0.618742       3.057297      -0.006000                    
      -6.132595       0.106743       3.150944       0.103000                    
      -5.726927      -1.567044       2.701277       0.103000                    
      -4.664937      -0.825510       4.422012      -0.006000                    
      -3.856946      -1.550995       4.328364       0.103000                    
      -4.262619       0.122786       4.778025       0.103000                    
      -5.889816      -1.437523       5.595071      -0.200000                    
      -1.879600      -2.693783      -6.305962      -0.200000                    
      -0.636046      -1.487794      -5.805937      -0.006000                    
       0.279821      -1.653478      -6.373060       0.103000                    
      -1.006844      -0.481409      -6.000037       0.103000                    
      -0.345561      -1.644321      -4.312110      -0.006000                    
      -1.261435      -1.478631      -3.744984       0.103000                    
       0.025223      -2.650706      -4.118013       0.103000                    
       0.897985      -0.438326      -3.812082      -0.200000                    
      -2.939222       6.562603      -3.289103      -0.200000                    
      -2.646394       7.768941      -1.981479      -0.006000                    
      -1.577500       7.832319      -1.777984       0.103000                    
      -3.014722       8.744743      -2.297886       0.103000                    
      -3.381614       7.333947      -0.712400      -0.006000                    
      -4.450502       7.270575      -0.915890       0.103000                    
      -3.013287       6.358146      -0.395994       0.103000                    
      -3.088781       8.540291       0.595229      -0.200000                    
      -3.011398      -6.057195      -3.021168      -0.200000                    
      -1.985666      -6.517412      -1.611582      -0.006000                    
      -1.004651      -6.052526      -1.708607       0.103000                    
      -2.459536      -6.177608      -0.690757       0.103000                    
      -1.826848      -8.038455      -1.571511      -0.006000                    
      -2.807863      -8.503343      -1.474487       0.103000                    
      -1.352970      -8.378265      -2.492340       0.103000                    
      -0.801110      -8.498685      -0.161921      -0.200000                    
       4.303214      10.310445       2.012469      -0.200000                    
       2.997248      10.399841       0.772601      -0.006000                    
       2.763359      11.444045       0.565551       0.103000                    
       3.331918       9.913639      -0.143673       0.103000                    
       1.746628       9.692059       1.297333      -0.006000                    
       1.980526       8.647850       1.504382       0.103000                    
       1.411957      10.178255       2.213615       0.103000                    
       0.440660       9.781448       0.057473      -0.200000                    
       2.838287       4.229854      -6.324963      -0.200000                    
       1.684741       3.000524      -5.685440      -0.006000                    
       1.637678       2.154677      -6.371209       0.103000                    
       2.023757       2.657662      -4.708002       0.103000                    
       0.295047       3.626070      -5.552024      -0.006000                    
       0.342102       4.471922      -4.866251       0.103000                    
      -0.043968       3.968938      -6.529469       0.103000                    
      -0.858497       2.396747      -4.912509      -0.200000                    
       2.848212      -2.283611      -7.268523      -0.200000                    
       4.115146      -2.955437      -6.175595      -0.006000                    
       3.639546      -3.467384      -5.339145       0.103000                    
       4.735386      -3.660899      -6.728420       0.103000                    
       4.987959      -1.816193      -5.645811      -0.006000                    
       5.463563      -1.304248      -6.482248       0.103000                    
       4.367717      -1.110738      -5.092979       0.103000                    
       6.254900      -2.488014      -4.552877      -0.200000                    
      -1.018952      -1.594749       6.275668      -0.200000                    
       0.433118      -1.787833       7.326948      -0.006000                    
       0.718198      -0.818159       7.734814       0.103000                    
       0.202492      -2.472091       8.143379       0.103000                    
       1.589722      -2.352703       6.500179      -0.006000                    
       1.304641      -3.322377       6.092313       0.103000                    
       1.820349      -1.668439       5.683740       0.103000                    
       3.041791      -2.545787       7.551459      -0.200000                    
       7.911467      -4.704022      -0.999266      -0.200000                    
       7.829988      -3.676467       0.480040      -0.006000                    
       7.968429      -2.631018       0.204628       0.103000                    
       6.857617      -3.801261       0.956318       0.103000                    
       8.932063      -4.096817       1.454258      -0.006000                    
       8.793623      -5.142266       1.729670       0.103000                    
       9.904433      -3.972023       0.977980       0.103000                    
       8.850583      -3.069262       2.933563      -0.200000                    
       2.288844      -8.500034       2.478663      -0.200000                    
       2.201186      -8.193110       4.253224      -0.006000                    
       1.920557      -9.112060       4.767696       0.103000                    
       3.173937      -7.857724       4.612678       0.103000                    
       1.154668      -7.112825       4.532800      -0.006000                    
       1.435298      -6.193876       4.018330       0.103000                    
       0.181916      -7.448218       4.173356       0.103000                    
       1.067019      -6.805907       6.307359      -0.200000                    
       6.978471      -8.183174      -1.674889      -0.200000                    
       5.415974      -7.655889      -0.945848      -0.006000                    
       5.259876      -8.179312      -0.002656       0.103000                    
       5.443338      -6.581399      -0.765141       0.103000                    
       4.269846      -7.982071      -1.905193      -0.006000                    
       4.425942      -7.458655      -2.848377       0.103000                    
       4.242480      -9.056567      -2.085892       0.103000                    
       2.707335      -7.454792      -1.176146      -0.200000                    
       3.341966       8.045774       4.609630      -0.200000                    
       4.186406       9.177748       5.730537      -0.006000                    
       5.228436       8.875816       5.835266       0.103000                    
       4.139767      10.189769       5.328528       0.103000                    
       3.505528       9.141776       7.100038      -0.006000                    
       2.463498       9.443707       6.995309       0.103000                    
       3.552167       8.129755       7.502047       0.103000                    
       4.349968      10.273750       8.220944      -0.200000                    
      -4.962399       6.004097       5.093699      -0.200000                    
      -6.112812       5.217769       3.949530      -0.006000                    
      -7.003369       5.837562       3.846053       0.103000                    
      -5.635573       5.101712       2.976540       0.103000                    
      -6.509283       3.842512       4.489740      -0.006000                    
      -5.618725       3.222719       4.593217       0.103000                    
      -6.986514       3.958563       5.462728       0.103000                    
      -7.659701       3.056178       3.345565      -0.200000                    
      -2.592648       3.116892      -7.924142      -0.200000                    
      -3.751642       1.737262      -7.989429      -0.006000                    
      -4.686068       2.068529      -8.442241       0.103000                    
      -3.324275       0.931319      -8.585881       0.103000                    
      -4.023746       1.232313      -6.571223      -0.006000                    
      -3.089321       0.901047      -6.118412       0.103000                    
      -4.451122       2.038262      -5.974769       0.103000                    
      -5.182746      -0.147322      -6.636517      -0.200000                    
       1.755397       7.786015      -5.244594      -0.200000                    
       0.533413       8.191234      -6.506926      -0.006000                    
       0.513724       9.270065      -6.660841       0.103000                    
       0.797454       7.695503      -7.440983       0.103000                    
      -0.847507       7.716471      -6.050890      -0.006000                    
      -0.827818       6.637640      -5.896976       0.103000                    
      -1.111549       8.212202      -5.116833       0.103000                    
      -2.069490       8.121696      -7.313230      -0.200000                    
      -7.308304      -5.847989      -3.641668      -0.200000                    
      -6.138880      -4.992161      -4.714449      -0.006000                    
      -6.572675      -4.048773      -5.045769       0.103000                    
      -5.218115      -4.795940      -4.165243       0.103000                    
      -5.829712      -5.865954      -5.931507      -0.006000                    
      -5.395932      -6.809347      -5.600181       0.103000                    
      -6.750492      -6.062181      -6.480708       0.103000                    
      -4.660301      -5.010125      -7.004289      -0.200000                    
       2.865688      11.054333      -3.673028      -0.200000                    
       1.217946      11.774378      -3.805077      -0.006000                    
       1.157175      12.661344      -3.174566       0.103000                    
       1.024007      12.050968      -4.841331       0.103000                    
       0.176369      10.751659      -3.347336      -0.006000                    
       0.237147       9.864698      -3.977842       0.103000                    
       0.370301      10.475074      -2.311080       0.103000                    
      -1.471374      11.471714      -3.479377      -0.200000                    
       8.926831       1.342343       3.268542      -0.200000                    
       8.799619       1.346517       5.067068      -0.006000                    
       8.549040       2.349763       5.411502       0.103000                    
       8.020876       0.650254       5.378086       0.103000                    
      10.137268       0.918878       5.673875      -0.006000                    
      10.387855      -0.084364       5.329447       0.103000                    
      10.916019       1.615134       5.362853       0.103000                    
      10.010056       0.923052       7.472400      -0.200000                    
      -7.706851      -8.115713      -0.269875      -0.200000                    
      -7.655178      -6.393903       0.262670      -0.006000                    
      -6.934834      -5.846745      -0.345337       0.103000                    
      -8.642653      -5.947522       0.146181       0.103000                    
      -7.236114      -6.327096       1.732452      -0.006000                    
      -7.956458      -6.874255       2.340459       0.103000                    
      -6.248638      -6.773478       1.848941       0.103000                    
      -7.184433      -4.605292       2.264993      -0.200000                    
       9.920163       8.739402      -0.250315      -0.200000                    
       8.295807       9.521242      -0.216337      -0.006000                    
       7.693519       9.073995       0.574319       0.103000                    
       8.409904      10.588505      -0.026882       0.103000                    
       7.602047       9.314390      -1.564012      -0.006000                    
       8.204334       9.761639      -2.354668       0.103000                    
       7.487950       8.247128      -1.753466       0.103000                    
       5.977693      10.096237      -1.530042      -0.200000                    
      10.412583       4.500106       5.620483      -0.200000                    
       9.954039       5.985124       4.706513      -0.006000                    
       9.698888       6.779444       5.407899       0.103000                    
      10.791661       6.303263       4.085949       0.103000                    
       8.746529       5.683851       3.816849      -0.006000                    
       9.001677       4.889525       3.115472       0.103000                    
       7.908906       5.365712       4.437414       0.103000                    
       8.287983       7.168869       2.902879      -0.200000                    
      -6.586514       7.606485      -3.868867      -0.200000                    
      -7.143427       6.164973      -4.797705      -0.006000                    
      -7.729730       5.517010      -4.146327       0.103000                    
      -7.758304       6.488795      -5.637372       0.103000                    
      -5.929296       5.396029      -5.322154      -0.006000                    
      -5.342993       6.043992      -5.973531       0.103000                    
      -5.314418       5.072206      -4.482487       0.103000                    
      -6.486209       3.954516      -6.250991      -0.200000                    
      11.951939       1.678791       0.567691      -0.200000                    
      11.066703       0.118378       0.387693      -0.006000                    
      11.485201      -0.618259       1.073383       0.103000                    
      10.011953       0.270219       0.616698       0.103000                    
      11.208493      -0.385458      -1.049800      -0.006000                    
      10.789989       0.351167      -1.735488       0.103000                    
      12.263242      -0.537305      -1.278797       0.103000                    
      10.323257      -1.945870      -1.229798      -0.200000                    
     -12.184807      -3.559259       2.733259      -0.200000                    
     -10.522481      -2.864023       2.669070      -0.006000                    
     -10.324408      -2.310020       3.586568       0.103000                    
      -9.795268      -3.669368       2.566488       0.103000                    
     -10.410261      -1.920589       1.470040      -0.006000                    
     -10.608335      -2.474591       0.552541       0.103000                    
     -11.137469      -1.115238       1.572627       0.103000                    
      -8.747931      -1.225347       1.405856      -0.200000                    
      -4.121423      -3.795043       8.282605      -0.200000                    
      -4.164222      -4.884397       6.846526      -0.006000                    
      -5.050869      -5.516355       6.895864       0.103000                    
      -4.194934      -4.285320       5.936535       0.103000                    
      -2.912154      -5.763358       6.835748      -0.006000                    
      -2.025520      -5.131399       6.786407       0.103000                    
      -2.881441      -6.362433       7.745738       0.103000                    
      -2.954958      -6.852716       5.399663      -0.200000                    
       2.010626       1.700811       7.184171      -0.200000                    
       1.634353       3.012906       8.362181      -0.006000                    
       2.155280       3.924529       8.069672       0.103000                    
       0.559854       3.195424       8.372133       0.103000                    
       2.092282       2.590510       9.759420      -0.006000                    
       1.571355       1.678887      10.051929       0.103000                    
       3.166789       2.407987       9.749464       0.103000                    
       1.716009       3.902605      10.937429      -0.200000                    
      -1.990957       8.133506      10.216486      -0.200000                    
      -0.527695       7.535343       9.349338      -0.006000                    
       0.196289       8.344797       9.256682       0.103000                    
      -0.083678       6.712849       9.909970       0.103000                    
      -0.925448       7.045681       7.955635      -0.006000                    
      -1.649432       6.236228       8.048289       0.103000                    
      -1.369456       7.868175       7.394991       0.103000                    
       0.537816       6.447525       7.088479      -0.200000                    
      -1.686384       4.049984      10.225795      -0.200000                    
      -2.220457       2.551828       9.376506      -0.006000                    
      -1.359833       1.906068       9.202579       0.103000                    
      -2.951032       2.026215       9.991280       0.103000                    
      -2.856649       2.924753       8.036163      -0.006000                    
      -3.717280       3.570519       8.210093       0.103000                    
      -2.126079       3.450378       7.421385       0.103000                    
      -3.390719       1.426604       7.186867      -0.200000                    
     -10.467846       7.847014      -2.306515      -0.200000                    
      -9.076427       8.085742      -1.184955      -0.006000                    
      -8.344653       8.746885      -1.649041       0.103000                    
      -9.430901       8.531158      -0.255498       0.103000                    
      -8.424685       6.734342      -0.886121      -0.006000                    
      -9.156461       6.073199      -0.422035       0.103000                    
      -8.070218       6.288921      -1.815584       0.103000                    
      -7.033273       6.973064       0.235432      -0.200000                    
      -3.120389      -8.960073      -8.064895      -0.200000                    
      -1.998942      -7.552466      -7.956276      -0.006000                    
      -1.331906      -7.551672      -8.818246       0.103000                    
      -2.576098      -6.628005      -7.942372       0.103000                    
      -1.172776      -7.656545      -6.672925      -0.006000                    
      -1.839809      -7.657333      -5.810963       0.103000                    
      -0.595603      -8.581000      -6.686833       0.103000                    
      -0.051322      -6.248933      -6.564300      -0.200000                    
       5.723895       1.470150       9.337790      -0.200000                    
       5.637545       0.062750       8.214116      -0.006000                    
       4.690173      -0.457407       8.355031       0.103000                    
       5.709746       0.414243       7.184951       0.103000                    
       6.793380      -0.895577       8.507384      -0.006000                    
       7.740758      -0.375416       8.366475       0.103000                    
       6.721179      -1.247060       9.536559       0.103000                    
       6.707024      -2.302972       7.383715      -0.200000                    
      13.598154       4.592420      -4.121236      -0.200000                    
      12.319671       3.639710      -3.279406      -0.006000                    
      12.781999       2.830189      -2.714718       0.103000                    
      11.770309       4.290146      -2.598921       0.103000                    
      11.356154       3.054042      -4.313354      -0.006000                    
      10.893835       3.863556      -4.878044       0.103000                    
      11.905517       2.403605      -4.993838       0.103000                    
      10.077673       2.101332      -3.471523      -0.200000                    
      -9.244203       2.354555      -6.651594      -0.200000                    