%nprocshared=4                                                                       
%mem=8GB                                                                             
#P pop=chelpg cam-b3lyp/gen scf=qc int=ultrafine charge td(nstates=10)               
                                                                                     
pNA CAM-B3LYP def2-TZVPD Single point - solvent def2-SV(P)                           
                                                                                     
0 1                                                                                  
 C       1.389235       0.000000      -0.000000                                 
 C       0.000000       0.000000      -0.000000                                 
 C      -0.711164       1.193419       0.000000                                 
 C      -0.034074       2.386367       0.000141                                 
 C       1.370482       2.412065       0.000933                                 
 C       2.067428       1.192342       0.000144                                 
 H       1.924301      -0.937208       0.000967                                 
 H      -1.790186       1.173300       0.000962                                 
 H      -0.583208       3.318526      -0.000772                                 
 H       3.149318       1.197759      -0.000767                                 
 N      -0.711160      -1.251627       0.001756                                 
 O      -1.932441      -1.229701       0.002542                                 
 O      -0.067142      -2.289538       0.002483                                 
 N       2.040236       3.590780      -0.024683                                 
 H       1.546357       4.451509       0.132529                                 
 H       3.032458       3.607145       0.132525                                 
Cl       1.445360      10.059031       1.901032                                 
 C       1.745584       8.505057       1.037381                                 
 H       2.534122       8.646295       0.298328                                 
 H       2.051730       7.743701       1.754700                                 
 C       0.463062       8.056311       0.334456                                 
 H      -0.325476       7.915074       1.073509                                 
 H       0.156921       8.817659      -0.382867                                 
Cl       0.763296       6.502340      -0.529187                                 
Cl      -0.795320       0.042084      -4.344514                                 
 C      -0.296419      -1.584216      -3.746832                                 
 H       0.090651      -2.173920      -4.577719                                 
 H       0.478836      -1.471020      -2.989121                                 
 C      -1.505174      -2.296090      -3.136496                                 
 H      -1.892244      -1.706386      -2.305609                                 
 H      -2.280428      -2.409285      -3.894207                                 
Cl      -1.006275      -3.922388      -2.538823                                 
Cl      -4.558505      -3.749344       1.797181                                 
 C      -4.113071      -3.768046       0.050151                                 
 H      -3.090179      -3.410719      -0.068107                                 
 H      -4.189476      -4.785277      -0.333680                                 
 C      -5.064085      -2.857070      -0.728353                                 
 H      -6.086968      -3.214407      -0.610089                                 
 H      -4.987671      -1.839850      -0.344516                                 
Cl      -4.618648      -2.875774      -2.475374                                 
Cl      -3.626650       1.764963      -1.624905                                 
 C      -5.362772       1.723871      -2.109812                                 
 H      -5.810367       0.786506      -1.779746                                 
 H      -5.888814       2.559969      -1.649177                                 
 C      -5.469725       1.831226      -3.632108                                 
 H      -5.022133       2.768595      -3.962184                                 
 H      -4.943683       0.995128      -4.092743                                 
Cl      -7.205850       1.790137      -4.117025                                 
Cl      -1.266631       3.768848      -2.922709                                 
 C       0.508586       3.877405      -3.218829                                 
 H       0.948533       4.599049      -2.530631                                 
 H       0.964010       2.899897      -3.060724                                 
 C       0.758657       4.328973      -4.658945                                 
 H       0.318718       3.607335      -5.347143                                 
 H       0.303241       5.306487      -4.817050                                 
Cl       2.533869       4.437538      -4.955061                                 
                                                                                
       2.679454      -1.157398       5.601333      -0.200000                    
       3.738686      -1.462168       4.174445      -0.006000                    
       4.296116      -0.556607       3.935417       0.103000                    
       4.435579      -2.267996       4.404478       0.103000                    
       2.876543      -1.861097       2.975297      -0.006000                    
       2.319113      -2.766658       3.214325       0.103000                    
       2.179644      -1.055262       2.745268       0.103000                    
       3.935774      -2.165867       1.548409      -0.200000                    
      -0.681584      -0.471168       3.490685      -0.200000                    
      -1.233328      -1.969406       4.328454      -0.006000                    
      -0.716367      -2.063349       5.283373       0.103000                    
      -2.308164      -1.914771       4.500745       0.103000                    
      -0.918350      -3.186486       3.456783      -0.006000                    
      -1.435311      -3.092543       2.501864       0.103000                    
       0.156486      -3.241121       3.284492       0.103000                    
      -1.470103      -4.684713       4.294547      -0.200000                    
       1.273532      -5.327109       1.703947      -0.200000                    
       0.081534      -6.009811       0.536072      -0.006000                    
      -0.141321      -5.268442      -0.231159       0.103000                    
       0.499618      -6.901626       0.069358       0.103000                    
      -1.204986      -6.378298       1.277326      -0.006000                    
      -0.982131      -7.119668       2.044557       0.103000                    
      -1.623070      -5.486484       1.744040       0.103000                    
      -2.396990      -7.060992       0.109455      -0.200000                    
      -0.156849       4.431705       2.762757      -0.200000                    
       0.103937       2.953104       3.761056      -0.006000                    
      -0.772594       2.308941       3.692614       0.103000                    
       0.978930       2.416569       3.394440       0.103000                    
       0.327561       3.355712       5.219919      -0.006000                    
       1.204092       3.999875       5.288362       0.103000                    
      -0.547437       3.892255       5.586539       0.103000                    
       0.588348       1.877110       6.218218      -0.200000                    
       6.851679       3.418729       5.986171      -0.200000                    
       5.384490       2.844987       5.109196      -0.006000                    
       5.116567       1.849000       5.461565       0.103000                    
       4.558197       3.530954       5.295301       0.103000                    
       5.675301       2.793147       3.608168      -0.006000                    
       5.943224       3.789133       3.255799       0.103000                    
       6.501602       2.107185       3.422061       0.103000                    
       4.208107       2.219412       2.731195      -0.200000                    
       7.306813       8.392906      -1.843662      -0.200000                    
       7.300267       6.872942      -0.873794      -0.006000                    
       7.438589       6.018453      -1.536101       0.103000                    
       8.110327       6.903070      -0.145190       0.103000                    
       5.962718       6.739952      -0.143262      -0.006000                    
       5.824397       7.594441       0.519045       0.103000                    
       5.152658       6.709824      -0.871866       0.103000                    
       5.956162       5.219986       0.826619      -0.200000                    
      -4.426578       0.018093       2.059146      -0.200000                    
      -5.594770       1.233705       1.419979      -0.006000                    
      -5.048200       2.050062       0.947975       0.103000                    
      -6.246783       0.760425       0.685913       0.103000                    
      -6.438749       1.784219       2.571066      -0.006000                    
      -6.985323       0.967864       3.043061       0.103000                    
      -5.786734       2.257494       3.305119       0.103000                    
      -7.606937       2.999823       1.931895      -0.200000                    
      -3.990342       8.557914       0.450031      -0.200000                    
      -4.527969       6.966641       1.105541      -0.006000                    
      -5.239517       7.128584       1.915124       0.103000                    
      -5.004037       6.389140       0.313207       0.103000                    
      -3.316596       6.198922       1.638008      -0.006000                    
      -2.605053       6.036986       0.828429       0.103000                    
      -2.840533       6.776431       2.430346       0.103000                    
      -3.854222       4.607649       2.293519      -0.200000                    
       4.216150       2.072833      -3.438429      -0.200000                    
       5.964531       2.355055      -3.776612      -0.006000                    
       6.288083       1.702168      -4.587157       0.103000                    
       6.115766       3.395160      -4.065168       0.103000                    
       6.782536       2.050921      -2.520130      -0.006000                    
       6.458997       2.703805      -1.709589       0.103000                    
       6.631310       1.010806      -2.231568       0.103000                    
       8.530926       2.333149      -2.858315      -0.200000                    
       8.238783      -3.324266      -0.279451      -0.200000                    
       8.252236      -1.522985      -0.200833      -0.006000                    
       9.175511      -1.186531       0.270677       0.103000                    
       8.189286      -1.114560      -1.209394       0.103000                    
       7.055373      -1.039458       0.620204      -0.006000                    
       6.132105      -1.375906       0.148693       0.103000                    
       7.118331      -1.447877       1.628764       0.103000                    
       7.068835       0.761829       0.698821      -0.200000                    
       3.498507      -8.997293      -2.138912      -0.200000                    
       3.895775      -7.444798      -1.312505      -0.006000                    
       3.374471      -7.398057      -0.356461       0.103000                    
       4.971003      -7.387661      -1.143481       0.103000                    
       3.455171      -6.272274      -2.190841      -0.006000                    
       3.976476      -6.319017      -3.146886       0.103000                    
       2.379935      -6.329419      -2.359864       0.103000                    
       3.852437      -4.719777      -1.364443      -0.200000                    
       3.803236       9.564191       7.057889      -0.200000                    
       4.008958       7.994656       6.194624      -0.006000                    
       5.009656       7.605333       6.381560       0.103000                    
       3.268058       7.281387       6.555529       0.103000                    
       3.818762       8.210345       4.692070      -0.006000                    
       2.818070       8.599676       4.505124       0.103000                    
       4.559668       8.923622       4.331155       0.103000                    
       4.024490       6.640818       3.828795      -0.200000                    
      -0.876229      10.662602       6.332583      -0.200000                    
       0.266105       9.483801       5.586573      -0.006000                    
       0.931951      10.007129       4.900486       0.103000                    
       0.854216       9.002988       6.368135       0.103000                    
      -0.525008       8.423019       4.818914      -0.006000                    
      -1.190846       7.899696       5.504999       0.103000                    
      -1.113114       8.903840       4.037341       0.103000                    
       0.617323       7.244219       4.072893      -0.200000                    
      -3.487388       2.084523       4.652119      -0.200000                    
      -4.380953       1.145718       5.905570      -0.006000                    
      -4.568203       1.781209       6.771031       0.103000                    
      -5.330179       0.802195       5.494575       0.103000                    
      -3.543625      -0.061600       6.331729      -0.006000                    
      -3.356381      -0.697084       5.466272       0.103000                    
      -2.594411       0.281919       6.742717       0.103000                    
      -4.437191      -1.000405       7.585180      -0.200000                    
      -3.080481       4.580936      -5.841357      -0.200000                    
      -3.467855       6.310886      -5.512620      -0.006000                    
      -3.285679       6.901237      -6.410543       0.103000                    
      -4.515278       6.400594      -5.224844       0.103000                    
      -2.581621       6.824923      -4.376528      -0.006000                    
      -2.763800       6.234573      -3.478615       0.103000                    
      -1.534205       6.735209      -4.664303       0.103000                    
      -2.969001       8.554861      -4.047803      -0.200000                    
      10.077213       4.556709      -0.684616      -0.200000                    
       9.316108       3.952125       0.833921      -0.006000                    
       9.215693       4.774125       1.542569       0.103000                    
       8.331004       3.543499       0.609177       0.103000                    
      10.194336       2.858079       1.443952      -0.006000                    
      10.294739       2.036079       0.735318       0.103000                    
      11.179437       3.266711       1.668709       0.103000                    
       9.433219       2.253495       2.962503      -0.200000                    
       4.412608       2.214758      -6.986430      -0.200000                    
       3.528409       0.686884      -7.353405      -0.006000                    
       2.808865       0.866099      -8.152219       0.103000                    
       4.238607      -0.077482      -7.668544       0.103000                    
       2.790595       0.211181      -6.100527      -0.006000                    
       3.510124       0.031970      -5.301719       0.103000                    
       2.080391       0.975554      -5.785386       0.103000                    
       1.906383      -1.316691      -6.467499      -0.200000                    
       4.929111       9.042456      -7.147475      -0.200000                    
       5.747191       7.774986      -6.159933      -0.006000                    
       6.081385       6.966744      -6.810315       0.103000                    
       6.606486       8.209949      -5.649693       0.103000                    
       4.765692       7.222863      -5.124463      -0.006000                    
       4.431507       8.031110      -4.474082       0.103000                    
       3.906403       6.787907      -5.634713       0.103000                    
       5.583782       5.955393      -4.136934      -0.200000                    
       1.408329       7.744610      -4.485339      -0.200000                    
       0.568603       9.249679      -5.015016      -0.006000                    
       1.190162       9.777480      -5.738235       0.103000                    
      -0.384990       8.991236      -5.475256       0.103000                    
       0.321840      10.149516      -3.802694      -0.006000                    
      -0.299717       9.621713      -3.079465       0.103000                    
       1.275430      10.407964      -3.342441       0.103000                    
      -0.517888      11.654590      -4.332358      -0.200000                    
      -5.442635      -6.541122      -4.470251      -0.200000                    
      -4.425017      -5.773070      -5.745183      -0.006000                    
      -4.370232      -6.431330      -6.612163       0.103000                    
      -4.867230      -4.821131      -6.038847       0.103000                    
      -3.016738      -5.533296      -5.197834      -0.006000                    
      -3.071532      -4.875042      -4.330853       0.103000                    
      -2.574534      -6.485240      -4.904169       0.103000                    
      -1.999132      -4.765247      -6.472775      -0.200000                    
     -11.009501      -2.538003       3.981893      -0.200000                    
      -9.921995      -1.662223       2.841170      -0.006000                    
     -10.454242      -1.464698       1.910762       0.103000                    
      -9.609592      -0.718762       3.288668       0.103000                    
      -8.689715      -2.520975       2.550661      -0.006000                    
      -8.157471      -2.718500       3.481070       0.103000                    
      -9.002120      -3.464436       2.103163       0.103000                    
      -7.602211      -1.645195       1.409938      -0.200000                    
       6.202101      -1.939493      -3.930433      -0.200000                    
       5.974315      -2.718385      -5.540528      -0.006000                    
       4.940084      -2.594377      -5.861342       0.103000                    
       6.638894      -2.251676      -6.267469       0.103000                    
       6.300032      -4.209492      -5.436329      -0.006000                    
       7.334261      -4.333499      -5.115515       0.103000                    
       5.635452      -4.676201      -4.709388       0.103000                    
       6.072253      -4.988378      -7.046425      -0.200000                    
       5.074970      -4.852177       3.931349      -0.200000                    
       6.259858      -5.802164       2.959525      -0.006000                    
       6.887050      -5.121355       2.384186       0.103000                    
       6.884576      -6.395730       3.626888       0.103000                    
       5.507829      -6.731513       2.004994      -0.006000                    
       4.880638      -7.412322       2.580333       0.103000                    
       4.883111      -6.137948       1.337631       0.103000                    
       6.692719      -7.681502       1.033179      -0.200000                    
       4.008461      11.125514      -3.117336      -0.200000                    
       4.370444      10.608811      -1.428266      -0.006000                    
       3.459790      10.654279      -0.831069       0.103000                    
       4.750726       9.587392      -1.434133       0.103000                    
       5.422734      11.540665      -0.824368      -0.006000                    
       6.333386      11.495202      -1.421552       0.103000                    
       5.042447      12.562092      -0.818497       0.103000                    
       5.784719      11.023962       0.864702      -0.200000                    
      -5.891672      -2.344419       4.814977      -0.200000                    
      -5.975335      -4.140257       4.952414      -0.006000                    
      -7.016268      -4.460264       4.907229       0.103000                    
      -5.419559      -4.593973       4.131917       0.103000                    
      -5.364993      -4.578678       6.284953      -0.006000                    
      -4.324054      -4.258662       6.330128       0.103000                    
      -5.920763      -4.124954       7.105439       0.103000                    
      -5.448649      -6.374507       6.422379      -0.200000                    
      -0.539213     -11.874965      -4.620855      -0.200000                    
      -0.796388     -10.206379      -3.987892      -0.006000                    
      -1.254294      -9.590494      -4.761812       0.103000                    
      -1.452218     -10.244515      -3.118188       0.103000                    
       0.549430      -9.600820      -3.584869      -0.006000                    
       1.007331     -10.216698      -2.810946       0.103000                    
       1.205263      -9.562686      -4.454563       0.103000                    
       0.292264      -7.932229      -2.951906      -0.200000                    
      -4.618637      -1.759801      -5.779029      -0.200000                    
      -3.425742      -1.345247      -7.065917      -0.006000                    
      -2.946524      -0.396343      -6.825424       0.103000                    
      -2.670472      -2.128638      -7.127566       0.103000                    
      -4.146544      -1.225674      -8.409995      -0.006000                    
      -4.625765      -2.174573      -8.650476       0.103000                    
      -4.901819      -0.442275      -8.348343       0.103000                    
      -2.953652      -0.811115      -9.696871      -0.200000                    
       6.793252       8.432833       3.125300      -0.200000                    
       8.317019       7.826838       3.874907      -0.006000                    
       9.032948       7.576827       3.092020       0.103000                    
       8.737481       8.599040       4.518976       0.103000                    
       8.014942       6.578747       4.706431      -0.006000                    
       7.299011       6.828758       5.489318       0.103000                    
       7.594471       5.806538       4.062363       0.103000                    
       9.538708       5.972751       5.456038      -0.200000                    
      -6.404698       5.422516      -2.011845      -0.200000                    
      -8.098490       5.026566      -2.486406      -0.006000                    
      -8.493400       5.820247      -3.120491       0.103000                    
      -8.111913       4.083809      -3.033175       0.103000                    
      -8.963393       4.899694      -1.230948      -0.006000                    
      -8.568486       4.106016      -0.596871       0.103000                    
      -8.949973       5.842453      -0.684187       0.103000                    
     -10.657185       4.503744      -1.705509      -0.200000                    
      11.401002      -1.136202       6.125834      -0.200000                    
       9.834218      -0.477779       5.523630      -0.006000                    
       9.367565       0.122028       6.304951       0.103000                    
      10.014143       0.143928       4.646687       0.103000                    
       8.906356      -1.634170       5.146562      -0.006000                    
       9.373012      -2.233964       4.365242       0.103000                    
       8.726436      -2.255866       6.023517       0.103000                    
       7.339577      -0.975736       4.544369      -0.200000                    
       1.558683      -3.809268       7.079206      -0.200000                    
       1.311191      -5.575927       7.341033      -0.006000                    
       1.590708      -5.834790       8.362208       0.103000                    
       0.262730      -5.824414       7.176974       0.103000                    
       2.181027      -6.363662       6.359570      -0.006000                    
       1.901518      -6.104793       5.338393       0.103000                    
       3.229483      -6.115167       6.523631       0.103000                    
       1.933535      -8.130321       6.621396      -0.200000                    
       0.990599      -8.734348      -7.449818      -0.200000                    
       2.088169      -7.580097      -6.604836      -0.006000                    
       2.257080      -7.920592      -5.583327       0.103000                    
       3.040004      -7.530214      -7.133514       0.103000                    
       1.446213      -6.191714      -6.579422      -0.006000                    
       1.277294      -5.851224      -7.600929       0.103000                    
       0.494378      -6.241597      -6.050744       0.103000                    
       2.543775      -5.037469      -5.734438      -0.200000                    
      -6.240362       6.379578       4.297906      -0.200000                    
      -6.224108       4.712578       4.984740      -0.006000                    
      -6.740185       4.034359       4.305317       0.103000                    
      -5.193391       4.382742       5.114285       0.103000                    
      -6.933109       4.712653       6.340345      -0.006000                    
      -6.417033       5.390871       7.019769       0.103000                    
      -7.963826       5.042488       6.210801       0.103000                    
      -6.916855       3.045652       7.027179      -0.200000                    
      -3.764505     -10.165100       0.221677      -0.200000                    
      -2.236635     -11.112321       0.083010      -0.006000                    
      -2.400102     -12.122862       0.457180       0.103000                    
      -1.929955     -11.156739      -0.961943       0.103000                    
      -1.140186     -10.435066       0.907321      -0.006000                    
      -0.976717      -9.424529       0.533139       0.103000                    
      -1.446877     -10.390651       1.952264       0.103000                    
       0.387681     -11.382284       0.768645      -0.200000                    
      -1.738497       3.981252       7.943076      -0.200000                    
      -1.774978       5.766898       7.696046      -0.006000                    
      -1.314023       6.261666       8.550833       0.103000                    
      -1.225168       6.019845       6.789590       0.103000                    
      -3.225520       6.233160       7.558832      -0.006000                    
      -3.686474       5.738391       6.704045       0.103000                    
      -3.775322       5.980218       8.465286       0.103000                    
      -3.262004       8.018808       7.311792      -0.200000                    
      -0.118370      -8.613638       3.909900      -0.200000                    
      -1.600473      -8.588915       4.936385      -0.006000                    
      -1.770665      -7.577388       5.304902       0.103000                    
      -2.457886      -8.909365       4.344716       0.103000                    
      -1.415846      -9.538495       6.121520      -0.006000                    
      -1.245641     -10.550024       5.752997       0.103000                    
      -0.558420      -9.218048       6.713184       0.103000                    
      -2.897944      -9.513781       7.148001      -0.200000                    
      -7.402186      -5.946531       2.731227      -0.200000                    
      -6.220727      -7.303916       2.843177      -0.006000                    
      -5.826934      -7.525890       1.851425       0.103000                    
      -5.402040      -7.019763       3.504191       0.103000                    
      -6.920276      -8.544022       3.402771      -0.006000                    
      -7.314069      -8.322048       4.394523       0.103000                    
      -7.738963      -8.828176       2.741757       0.103000                    
      -5.738815      -9.901406       3.514721      -0.200000                    
     -11.892469      -6.728412      -3.517213      -0.200000                    
     -10.911976      -5.238321      -3.254294      -0.006000                    
     -10.698904      -4.769133      -4.214721       0.103000                    
     -11.468330      -4.543239      -2.625585       0.103000                    
      -9.597174      -5.608054      -2.565151      -0.006000                    
      -9.810247      -6.077235      -1.604712       0.103000                    
      -9.040824      -6.303127      -3.193857       0.103000                    
      -8.616685      -4.117954      -2.302229      -0.200000                    
      -9.381971       1.309478      -1.300179      -0.200000                    