%nprocshared=4                                                                       
%mem=8GB                                                                             
#P pop=chelpg cam-b3lyp/gen scf=qc int=ultrafine charge td(nstates=10)               
                                                                                     
pNA CAM-B3LYP def2-TZVPD Single point - solvent def2-SV(P)                           
                                                                                     
0 1                                                                                  
 C       1.389235       0.000000      -0.000000                                 
 C       0.000000       0.000000      -0.000000                                 
 C      -0.711164       1.193419       0.000000                                 
 C      -0.034074       2.386367       0.000141                                 
 C       1.370482       2.412065       0.000933                                 
 C       2.067428       1.192342       0.000144                                 
 H       1.924301      -0.937208       0.000967                                 
 H      -1.790186       1.173300       0.000962                                 
 H      -0.583208       3.318526      -0.000772                                 
 H       3.149318       1.197759      -0.000767                                 
 N      -0.711160      -1.251627       0.001756                                 
 O      -1.932441      -1.229701       0.002542                                 
 O      -0.067142      -2.289538       0.002483                                 
 N       2.040236       3.590780      -0.024683                                 
 H       1.546357       4.451509       0.132529                                 
 H       3.032458       3.607145       0.132525                                 
Cl       4.879198       4.027068      -0.880230                                 
 C       4.231930       3.517226      -2.483972                                 
 H       4.505609       2.479338      -2.673234                                 
 H       3.146200       3.612893      -2.484943                                 
 C       4.822717       4.407594      -3.578773                                 
 H       4.549039       5.445483      -3.389511                                 
 H       5.908448       4.311927      -3.577801                                 
Cl       4.175450       3.897752      -5.182515                                 
Cl      -1.428654      -6.130763       0.724480                                 
 C      -1.950471      -4.782432      -0.352825                                 
 H      -1.831653      -3.833113       0.169286                                 
 H      -1.338764      -4.780272      -1.254912                                 
 C      -3.419633      -4.973713      -0.734063                                 
 H      -3.538445      -5.923040      -1.256178                                 
 H      -4.031339      -4.975878       0.168032                                 
Cl      -3.941441      -3.625377      -1.811367                                 
Cl       1.798873      10.647466       2.000947                                 
 C       2.469157       9.403390       0.881188                                 
 H       2.329086       9.728739      -0.149571                                 
 H       3.532727       9.271152       1.079353                                 
 C       1.741352       8.075644       1.099634                                 
 H       1.881423       7.750296       2.130394                                 
 H       0.677782       8.207883       0.901469                                 
Cl       2.411636       6.831569      -0.020124                                 
Cl       0.778615      -6.311955      -2.151972                                 
 C       2.404646      -5.633783      -1.768391                                 
 H       3.012200      -6.397979      -1.283780                                 
 H       2.891073      -5.312545      -2.689342                                 
 C       2.249024      -4.435747      -0.829826                                 
 H       1.641461      -3.671556      -1.314438                                 
 H       1.762588      -4.756990       0.091124                                 
Cl       3.875055      -3.757575      -0.446245                                 
Cl      -7.353938      -0.166831       1.467738                                 
 C      -6.505267       1.134980       0.553429                                 
 H      -7.105433       1.423893      -0.309288                                 
 H      -6.360470       1.999291       1.201469                                 
 C      -5.144962       0.620819       0.078452                                 
 H      -4.544791       0.331895       0.941173                                 
 H      -5.289759      -0.243492      -0.569589                                 
Cl      -4.296285       1.922618      -0.835852                                 
                                                                                
      -2.644855      -1.004273       3.148475      -0.200000                    
      -2.870486      -2.704573       2.592584      -0.006000                    
      -3.534634      -2.719481       1.728506       0.103000                    
      -1.904881      -3.127917       2.316308       0.103000                    
      -3.485483      -3.532999       3.722111      -0.006000                    
      -2.821335      -3.518091       4.586190       0.103000                    
      -4.451079      -3.109653       3.998398       0.103000                    
      -3.711114      -5.233299       3.166221      -0.200000                    
      -1.272242       5.323703       1.993938      -0.200000                    
      -1.748346       4.313233       3.409267      -0.006000                    
      -2.360901       3.477983       3.070052       0.103000                    
      -0.853635       3.931759       3.901052       0.103000                    
      -2.549013       5.164001       4.396937      -0.006000                    
      -1.936463       5.999264       4.736146       0.103000                    
      -3.443729       5.545484       3.905155       0.103000                    
      -3.025122       4.153540       5.812269      -0.200000                    
      -1.348970       0.916385      -4.095170      -0.200000                    
       0.348767       0.623223      -3.563422      -0.006000                    
       0.661322       1.420377      -2.889026       0.103000                    
       0.407549      -0.334413      -3.046263       0.103000                    
       1.268974       0.599635      -4.785299      -0.006000                    
       0.956411      -0.197523      -5.459696       0.103000                    
       1.210184       1.557266      -5.302460       0.103000                    
       2.966703       0.306468      -4.253552      -0.200000                    
       7.197115      -3.075793       1.433654      -0.200000                    
       7.206788      -1.280565       1.601059      -0.006000                    
       7.586902      -1.009289       2.585889       0.103000                    
       7.846539      -0.847172       0.832395       0.103000                    
       5.782624      -0.745698       1.439645      -0.006000                    
       5.402505      -1.016965       0.454819       0.103000                    
       5.142869      -1.179083       2.208313       0.103000                    
       5.792305       1.049536       1.607052      -0.200000                    
       2.081537      -1.763171       6.663316      -0.200000                    
       2.461485      -2.559429       5.090909      -0.006000                    
       3.434693      -2.219498       4.737033       0.103000                    
       2.481268      -3.640733       5.226346       0.103000                    
       1.389489      -2.194416       4.062316      -0.006000                    
       0.416273      -2.534353       4.416190       0.103000                    
       1.369704      -1.113125       3.926873       0.103000                    
       1.769434      -2.990687       2.489903      -0.200000                    
      -0.072765       4.399033      -2.974874      -0.200000                    
       0.424428       5.860133      -3.906992      -0.006000                    
      -0.228095       6.694567      -3.650367       0.103000                    
       1.454986       6.115351      -3.660507       0.103000                    
       0.315740       5.570560      -5.405229      -0.006000                    
       0.968267       4.736123      -5.661868       0.103000                    
      -0.714818       5.315343      -5.651714       0.103000                    
       0.812932       7.031661      -6.337348      -0.200000                    
      -2.952884       6.440112      -1.680669      -0.200000                    
      -4.028088       5.867271      -0.351504      -0.006000                    
      -4.982204       5.545560      -0.768766       0.103000                    
      -3.555766       5.030623       0.163173       0.103000                    
      -4.264510       7.007651       0.640448      -0.006000                    
      -3.310401       7.329353       1.057718       0.103000                    
      -4.736825       7.844290       0.125767       0.103000                    
      -5.339707       6.434799       1.969618      -0.200000                    
       5.943169       0.188292      -2.211039      -0.200000                    
       6.290313      -1.574172      -2.366459      -0.006000                    
       6.695562      -1.949163      -1.426734       0.103000                    
       5.369304      -2.106639      -2.603417       0.103000                    
       7.309513      -1.796425      -3.485474      -0.006000                    
       6.904263      -1.421433      -4.425200       0.103000                    
       8.230512      -1.263959      -3.248527       0.103000                    
       7.656656      -3.558888      -3.640894      -0.200000                    
       7.999064       7.671788       0.723905      -0.200000                    
       6.521343       7.625857       1.756011      -0.006000                    
       6.683663       8.227341       2.650333       0.103000                    
       5.675181       8.025880       1.197468       0.103000                    
       6.226864       6.180249       2.160888      -0.006000                    
       6.064552       5.578771       1.266568       0.103000                    
       7.073025       5.780231       2.719422       0.103000                    
       4.749141       6.134322       3.192985      -0.200000                    
      -3.599799      -3.591886      -6.075683      -0.200000                    
      -2.207404      -2.874438      -5.182725      -0.006000                    
      -1.657665      -2.204690      -5.843924       0.103000                    
      -2.576183      -2.314812      -4.323189       0.103000                    
      -1.279078      -3.991740      -4.702950      -0.006000                    
      -1.828808      -4.661487      -4.041741       0.103000                    
      -0.910298      -4.551370      -5.562477       0.103000                    
       0.113327      -3.274291      -3.809982      -0.200000                    
       5.698029       3.900207       5.543475      -0.200000                    
       4.848133       2.534562       4.728861      -0.006000                    
       5.136900       2.501444       3.678411       0.103000                    
       5.122270       1.596311       5.211022       0.103000                    
       3.335785       2.739085       4.835211      -0.006000                    
       3.047018       2.772203       5.885661       0.103000                    
       3.061647       3.677340       4.353041       0.103000                    
       2.485881       1.373435       4.020596      -0.200000                    
      -4.656963       1.994529       3.336986      -0.200000                    
      -4.851770       1.230885       4.958669      -0.006000                    
      -3.870143       1.060765       5.400704       0.103000                    
      -5.431664       1.890660       5.603921       0.103000                    
      -5.581420      -0.105326       4.808748      -0.006000                    
      -6.563048       0.064794       4.366713       0.103000                    
      -5.001522      -0.765108       4.163492       0.103000                    
      -5.776222      -0.868977       6.430427      -0.200000                    
       5.159259      -5.229682       4.231213      -0.200000                    
       4.464829      -5.682510       2.630087      -0.006000                    
       3.805877      -4.887371       2.281597       0.103000                    
       5.271600      -5.827131       1.911646       0.103000                    
       3.667474      -6.980713       2.768834      -0.006000                    
       4.326417      -7.775858       3.117323       0.103000                    
       2.860703      -6.836089       3.487265       0.103000                    
       2.973044      -7.433541       1.167708      -0.200000                    
       8.008275       3.133142      -0.466214      -0.200000                    
       9.138435       3.498087       0.890377      -0.006000                    
      10.146068       3.183719       0.618731       0.103000                    
       9.133217       4.569614       1.089669       0.103000                    
       8.690346       2.744583       2.144086      -0.006000                    
       7.682714       3.058951       2.415733       0.103000                    
       8.695563       1.673059       1.944785       0.103000                    
       9.820507       3.109528       3.500677      -0.200000                    
      -3.171149       3.603247      -4.515943      -0.200000                    
      -4.782204       2.831886      -4.761811      -0.006000                    
      -4.931250       2.631524      -5.822747       0.103000                    
      -4.825775       1.895678      -4.205415       0.103000                    
      -5.879818       3.773044      -4.262019      -0.006000                    
      -5.730764       3.973411      -3.201081       0.103000                    
      -5.836247       4.709252      -4.818415       0.103000                    
      -7.490868       3.001675      -4.507890      -0.200000                    
       0.321721       9.069295      -2.822173      -0.200000                    
       1.051828      10.165799      -4.053258      -0.006000                    
       1.946874      10.631080      -3.640494       0.103000                    
       1.317090       9.590940      -4.940455       0.103000                    
       0.042261      11.250864      -4.432371      -0.006000                    
      -0.852776      10.785585      -4.845124       0.103000                    
      -0.222992      11.825726      -3.545162       0.103000                    
       0.772369      12.347368      -5.663455      -0.200000                    
      -7.715270      -2.266916      -6.463582      -0.200000                    
      -7.978914      -2.099055      -4.687862      -0.006000                    
      -9.014819      -1.817569      -4.499094       0.103000                    
      -7.764960      -3.048448      -4.197164       0.103000                    
      -7.048406      -1.018364      -4.134091      -0.006000                    
      -6.012505      -1.299842      -4.322855       0.103000                    
      -7.262365      -0.068963      -4.624785       0.103000                    
      -7.312056      -0.850495      -2.358368      -0.200000                    
       2.986981      -6.741329      -5.644432      -0.200000                    
       2.847738      -5.058935      -6.277743      -0.006000                    
       2.983416      -5.065138      -7.359171       0.103000                    
       1.862207      -4.660325      -6.037265       0.103000                    
       3.923035      -4.181272      -5.634460      -0.006000                    
       3.787344      -4.175070      -4.553021       0.103000                    
       4.908566      -4.579882      -5.874938       0.103000                    
       3.783788      -2.498870      -6.267769      -0.200000                    
      -0.572902       8.610512       3.932614      -0.200000                    
      -2.079796       8.916756       4.874134      -0.006000                    
      -2.848356       8.205599       4.571636       0.103000                    
      -1.874049       8.799073       5.937966       0.103000                    
      -2.569033      10.340938       4.604420      -0.006000                    
      -1.800472      11.052091       4.906928       0.103000                    
      -2.774786      10.458628       3.540591       0.103000                    
      -4.075932      10.647186       5.545952      -0.200000                    
      -8.663053      -4.310846       0.782408      -0.200000                    
      -7.791032      -5.162135      -0.546423      -0.006000                    
      -6.741701      -4.867533      -0.539861       0.103000                    
      -7.867114      -6.239430      -0.399527       0.103000                    
      -8.417382      -4.785798      -1.890466      -0.006000                    
      -9.466700      -5.080407      -1.897021       0.103000                    
      -8.341300      -3.708507      -2.037353       0.103000                    
      -7.545353      -5.637082      -3.219295      -0.200000                    
      -1.962819      -9.153814      -0.308552      -0.200000                    
      -0.490057      -9.242373       0.727827      -0.006000                    
       0.107266     -10.106628       0.437652       0.103000                    
       0.098976      -8.334140       0.600891       0.103000                    
      -0.905582      -9.379321       2.193735      -0.006000                    
      -1.502914      -8.515071       2.483909       0.103000                    
      -1.494624     -10.287560       2.320670       0.103000                    
       0.567180      -9.467880       3.230114      -0.200000                    
      -4.117083       6.228624      -6.670043      -0.200000                    
      -3.798239       7.928073      -6.159144      -0.006000                    
      -2.854786       8.265702      -6.587940       0.103000                    
      -4.606693       8.570403      -6.508093       0.103000                    
      -3.717039       7.995032      -4.632948      -0.006000                    
      -4.660498       7.657413      -4.204158       0.103000                    
      -2.908582       7.352713      -4.283994       0.103000                    
      -3.398201       9.694488      -4.122044      -0.200000                    
       5.648777       7.228172      -8.258894      -0.200000                    
       4.544274       7.231617      -6.833753      -0.006000                    
       3.513298       7.331195      -7.173023       0.103000                    
       4.657416       6.297443      -6.283816       0.103000                    
       4.895382       8.406770      -5.919341      -0.006000                    
       5.926353       8.307200      -5.580069       0.103000                    
       4.782239       9.340947      -6.469287       0.103000                    
       3.790879       8.410215      -4.494200      -0.200000                    
      -2.028756       4.239342      10.126671      -0.200000                    
      -1.056039       5.016136       8.822348      -0.006000                    
      -1.708395       5.623282       8.194839       0.103000                    
      -0.289005       5.648910       9.268634       0.103000                    
      -0.391047       3.934376       7.969133      -0.006000                    
       0.261312       3.327242       8.596647       0.103000                    
      -1.158077       3.301613       7.522853       0.103000                    
       0.581673       4.711182       6.664815      -0.200000                    
      11.718796       7.710661      -2.439802      -0.200000                    
       9.931485       7.523073      -2.294201      -0.006000                    
       9.703571       6.825963      -1.487937       0.103000                    
       9.480884       8.491209      -2.075989       0.103000                    
       9.366607       6.983109      -3.609379      -0.006000                    
       9.594522       7.680215      -4.415632       0.103000                    
       9.817209       6.014968      -3.827580       0.103000                    
       7.579298       6.795516      -3.463768      -0.200000                    
      -1.745867       0.391279      10.540658      -0.200000                    
      -1.525328      -0.957371       9.364434      -0.006000                    
      -0.486728      -1.287473       9.380335       0.103000                    
      -2.175201      -1.788440       9.638164       0.103000                    
      -1.884051      -0.471798       7.958748      -0.006000                    
      -2.922656      -0.141692       7.942860       0.103000                    
      -1.234184       0.359278       7.685021       0.103000                    
      -1.663516      -1.820444       6.782537      -0.200000                    
       2.668875       8.917554       7.852886      -0.200000                    
       3.036263       8.631989       6.110919      -0.006000                    
       3.544712       7.674474       5.998793       0.103000                    
       2.107421       8.619359       5.540780       0.103000                    
       3.938667       9.752021       5.589801      -0.006000                    
       3.430210      10.709530       5.701925       0.103000                    
       4.867501       9.764646       6.159938       0.103000                    
       4.306047       9.466450       3.847833      -0.200000                    
      -6.471289     -10.007518      -1.646831      -0.200000                    
      -4.991495      -9.507005      -2.547113      -0.006000                    
      -4.129762     -10.051857      -2.161777       0.103000                    
      -5.117968      -9.729113      -3.606647       0.103000                    
      -4.767410      -8.004704      -2.364813      -0.006000                    
      -5.629135      -7.459841      -2.750156       0.103000                    
      -4.640934      -7.782582      -1.305274       0.103000                    
      -3.287613      -7.504177      -3.265089      -0.200000                    
       8.197948      -2.248709       8.386296      -0.200000                    
       7.517117      -1.148354       7.130643      -0.006000                    
       6.928767      -1.728098       6.419511       0.103000                    
       6.880374      -0.402984       7.607000       0.103000                    
       8.659563      -0.446504       6.394027      -0.006000                    
       9.247911       0.133243       7.105150       0.103000                    
       9.296305      -1.191875       5.917670       0.103000                    
       7.978730       0.653851       5.138374      -0.200000                    
      -2.409354      10.422830       0.362229      -0.200000                    
      -2.338671      12.195179       0.685829      -0.006000                    
      -1.573451      12.397733       1.435055       0.103000                    
      -2.094215      12.723541      -0.235602       0.103000                    
      -3.696768      12.673764       1.202491      -0.006000                    
      -4.461997      12.471207       0.453264       0.103000                    
      -3.941224      12.145403       2.123922       0.103000                    
      -3.626094      14.446109       1.526089      -0.200000                    
       1.879219     -10.756832      -3.014053      -0.200000                    
       1.559688      -9.431478      -4.193997      -0.006000                    
       2.149168      -8.555112      -3.924843       0.103000                    
       1.835728      -9.761788      -5.195321       0.103000                    
       0.072715      -9.072871      -4.167738      -0.006000                    
      -0.516765      -9.949238      -4.436893       0.103000                    
      -0.203334      -8.742562      -3.166426       0.103000                    
      -0.246817      -7.747512      -5.347692      -0.200000                    
      -8.472804      -2.274953       4.079358      -0.200000                    
      -8.245011      -4.056460       4.238368      -0.006000                    
      -9.170725      -4.566566       3.972199       0.103000                    
      -7.446139      -4.381757       3.572085       0.103000                    
      -7.873439      -4.396092       5.683000      -0.006000                    
      -6.947727      -3.885982       5.949158       0.103000                    
      -8.672313      -4.070796       6.349282       0.103000                    
      -7.645649      -6.177595       5.842000      -0.200000                    
       4.506405       3.901093      -8.853356      -0.200000                    
       5.676768       2.731525      -8.136930      -0.006000                    
       6.514288       2.590662      -8.820052       0.103000                    
       6.043764       3.120131      -7.187044       0.103000                    
       4.978972       1.390339      -7.903148      -0.006000                    
       4.141447       1.531209      -7.220021       0.103000                    
       4.611972       1.001737      -8.853021       0.103000                    
       6.149329       0.220778      -7.186717      -0.200000                    
     -10.924975      -0.469294       2.014414      -0.200000                    
     -11.324864      -1.294585       0.462020      -0.006000                    
     -11.545584      -2.344397       0.654725       0.103000                    
     -12.194242      -0.817309       0.009967       0.103000                    
     -10.133451      -1.191343      -0.492033      -0.006000                    
      -9.912730      -0.141531      -0.684739       0.103000                    
      -9.264072      -1.668619      -0.039981       0.103000                    
     -10.533344      -2.016626      -2.044425      -0.200000                    
      -0.207845       2.664789      -7.348695      -0.200000                    
      -1.556149       2.447515      -8.525881      -0.006000                    
      -1.196316       2.655856      -9.533365       0.103000                    
      -1.921371       1.421857      -8.475131       0.103000                    
      -2.693650       3.410911      -8.181879      -0.006000                    
      -3.053484       3.202571      -7.174396       0.103000                    
      -2.328430       4.436574      -8.232639       0.103000                    
      -4.041964       3.193632      -9.359067      -0.200000                    
      10.387689      -0.005608       1.264265      -0.200000                    
      10.883785      -0.546908       2.910990      -0.006000                    
      10.878961       0.305151       3.590621       0.103000                    
      10.185953      -1.302904       3.270791       0.103000                    
      12.291971      -1.141543       2.849615      -0.006000                    
      12.296797      -1.993607       2.169992       0.103000                    
      12.989799      -0.385540       2.489818       0.103000                    
      12.788060      -1.682853       4.496347      -0.200000                    
       7.193516      10.722300      -0.858054      -0.200000                    
       6.667053      12.105471       0.171822      -0.006000                    
       7.505711      12.446898       0.778520       0.103000                    
       6.322103      12.921139      -0.463494       0.103000                    
       5.526604      11.655015       1.086600      -0.006000                    
       4.687955      11.313589       0.479913       0.103000                    
       5.871568      10.839339       1.721923       0.103000                    
       5.000149      13.038187       2.116486      -0.200000                    
       0.941032       0.484980      -9.801961      -0.200000                    
      -0.107795      -0.980944      -9.757337      -0.006000                    
      -1.153418      -0.678336      -9.702087       0.103000                    
       0.052847      -1.570557     -10.659837       0.103000                    
       0.244456      -1.822765      -8.529472      -0.006000                    
       1.290074      -2.125365      -8.584719       0.103000                    
       0.083813      -1.233148      -7.626981       0.103000                    
      -0.804377      -3.288682      -8.484844      -0.200000                    
     -10.532895       2.997515       3.971509      -0.200000                    