%nprocshared=4                                                                       
%mem=8GB                                                                             
#P pop=chelpg cam-b3lyp/gen scf=qc int=ultrafine charge td(nstates=10)               
                                                                                     
pNA CAM-B3LYP def2-TZVPD Single point - solvent def2-SV(P)                           
                                                                                     
0 1                                                                                  
 C       1.389235       0.000000      -0.000000                                 
 C       0.000000       0.000000      -0.000000                                 
 C      -0.711164       1.193419       0.000000                                 
 C      -0.034074       2.386367       0.000141                                 
 C       1.370482       2.412065       0.000933                                 
 C       2.067428       1.192342       0.000144                                 
 H       1.924301      -0.937208       0.000967                                 
 H      -1.790186       1.173300       0.000962                                 
 H      -0.583208       3.318526      -0.000772                                 
 H       3.149318       1.197759      -0.000767                                 
 N      -0.711160      -1.251627       0.001756                                 
 O      -1.932441      -1.229701       0.002542                                 
 O      -0.067142      -2.289538       0.002483                                 
 N       2.040236       3.590780      -0.024683                                 
 H       1.546357       4.451509       0.132529                                 
 H       3.032458       3.607145       0.132525                                 
Cl       7.279806      -0.157695       1.787543                                 
 C       6.621381       1.520822       1.784345                                 
 H       7.216639       2.146143       2.449623                                 
 H       6.661347       1.925120       0.772956                                 
 C       5.170067       1.500195       2.267721                                 
 H       4.574809       0.874877       1.602434                                 
 H       5.130101       1.095897       3.279110                                 
Cl       4.511649       3.178722       2.264516                                 
Cl      -2.513363       3.507180      -2.888897                                 
 C      -2.963031       4.274357      -1.320420                                 
 H      -3.424480       3.530560      -0.670958                                 
 H      -2.068736       4.671470      -0.840333                                 
 C      -3.952826       5.412748      -1.574809                                 
 H      -3.491383       6.156535      -2.224263                                 
 H      -4.847128       5.015628      -2.054897                                 
Cl      -4.402493       6.179921      -0.006322                                 
Cl      -2.647490      -0.207464       3.025325                                 
 C      -3.347810      -1.819101       3.429234                                 
 H      -2.693729      -2.333689       4.133026                                 
 H      -4.331900      -1.685660       3.878330                                 
 C      -3.479030      -2.652419       2.153027                                 
 H      -4.133111      -2.137827       1.449225                                 
 H      -2.494940      -2.785857       1.703921                                 
Cl      -4.179349      -4.264056       2.556936                                 
Cl       0.506136       6.103262      -1.438201                                 
 C      -0.282628       6.323574      -3.044506                                 
 H      -1.262361       5.846077      -3.037017                                 
 H      -0.398387       7.387708      -3.249817                                 
 C       0.586140       5.686739      -4.130816                                 
 H       1.565866       6.164230      -4.138308                                 
 H       0.701891       4.622600      -3.925508                                 
Cl      -0.202632       5.907045      -5.737123                                 
Cl      -3.763038       3.731001       2.970428                                 
 C      -2.170647       4.573676       3.041626                                 
 H      -1.559899       4.269278       2.191765                                 
 H      -2.327975       5.651673       3.008696                                 
 C      -1.455138       4.202787       4.341953                                 
 H      -2.065900       4.507186       5.191816                                 
 H      -1.297817       3.124784       4.374882                                 
Cl       0.137246       5.045455       4.413150                                 
                                                                                
       5.285754      -0.238003      -1.090591      -0.200000                    
       6.426433      -0.524944      -2.457154      -0.006000                    
       6.357967      -1.565049      -2.775615       0.103000                    
       6.167258       0.128182      -3.290337       0.103000                    
       7.855312      -0.225111      -2.000230      -0.006000                    
       7.923778       0.814994      -1.681769       0.103000                    
       8.114480      -0.878231      -1.167044       0.103000                    
       8.995984      -0.512046      -3.366790      -0.200000                    
      -8.066417       1.236947       1.960445      -0.200000                    
      -6.400737       0.855691       1.385053      -0.006000                    
      -5.681360       1.480604       1.914140       0.103000                    
      -6.181014      -0.194364       1.577589       0.103000                    
      -6.305125       1.129014      -0.117119      -0.006000                    
      -7.024495       0.504095      -0.646209       0.103000                    
      -6.524842       2.179063      -0.309659       0.103000                    
      -4.639446       0.747758      -0.692512      -0.200000                    
       5.290612       3.168677      -1.799562      -0.200000                    
       4.655729       2.818199      -3.450306      -0.006000                    
       5.386787       3.132103      -4.195242       0.103000                    
       4.471864       1.748469      -3.549587       0.103000                    
       3.347995       3.582050      -3.666490      -0.006000                    
       2.616930       3.268138      -2.921556       0.103000                    
       3.531853       4.651773      -3.567211       0.103000                    
       2.713104       3.231568      -5.317245      -0.200000                    
      -0.078121      -5.535437      -4.814117      -0.200000                    
      -1.000899      -5.889278      -3.306081      -0.006000                    
      -1.811005      -6.583232      -3.529917       0.103000                    
      -0.334122      -6.334733      -2.567890       0.103000                    
      -1.583281      -4.589461      -2.747778      -0.006000                    
      -0.773176      -3.895507      -2.523941       0.103000                    
      -2.250058      -4.144006      -3.485969       0.103000                    
      -2.506053      -4.943309      -1.239744      -0.200000                    
       0.437820       1.065320       3.660076      -0.200000                    
       0.389311      -0.726329       3.856330      -0.006000                    
      -0.536646      -1.012521       4.354931       0.103000                    
       0.436155      -1.200842       2.876231       0.103000                    
       1.582851      -1.179483       4.699238      -0.006000                    
       2.508821      -0.893291       4.200636       0.103000                    
       1.536020      -0.704970       5.679337       0.103000                    
       1.534342      -2.971131       4.895492      -0.200000                    
      -0.174833      -7.240564      -0.090522      -0.200000                    
      -1.165120      -6.989378       1.395135      -0.006000                    
      -2.195518      -6.773466       1.113049       0.103000                    
      -1.137032      -7.890616       2.007469       0.103000                    
      -0.598319      -5.813579       2.192985      -0.006000                    
       0.432085      -6.029502       2.475077       0.103000                    
      -0.626400      -4.912352       1.580657       0.103000                    
      -1.588599      -5.562386       3.678644      -0.200000                    
       3.582842      10.267566       1.477974      -0.200000                    
       4.136538       9.126423       0.196479      -0.006000                    
       3.991127       9.581526      -0.783154       0.103000                    
       5.193642       8.903273       0.340387       0.103000                    
       3.326313       7.831573       0.281972      -0.006000                    
       3.471737       7.376469       1.261605       0.103000                    
       2.269216       8.054729       0.138066       0.103000                    
       3.880016       6.690437      -0.999520      -0.200000                    
      -6.918235      -3.384975       0.838363      -0.200000                    
      -6.554279      -4.081186      -0.784513      -0.006000                    
      -6.084839      -5.057446      -0.664348       0.103000                    
      -7.480022      -4.189978      -1.349387       0.103000                    
      -5.604305      -3.148458      -1.538159      -0.006000                    
      -6.073745      -2.172186      -1.658319       0.103000                    
      -4.678567      -3.039659      -0.973281       0.103000                    
      -5.240348      -3.844673      -3.161026      -0.200000                    
       3.697963      -6.285493       1.650442      -0.200000                    
       3.476842      -4.623653       2.314074      -0.006000                    
       2.807658      -4.059007       1.664968       0.103000                    
       3.047030      -4.685581       3.313766       0.103000                    
       4.832567      -3.918427       2.385270      -0.006000                    
       5.501751      -4.483073       3.034375       0.103000                    
       5.262380      -3.856498       1.385577       0.103000                    
       4.611446      -2.256587       3.048901      -0.200000                    
      -5.887588       1.051285      -6.024903      -0.200000                    
      -4.721314       1.087525      -4.650361      -0.006000                    
      -4.312561       2.092583      -4.546745       0.103000                    
      -5.234513       0.807166      -3.730598       0.103000                    
      -3.584121       0.100474      -4.920327      -0.006000                    
      -3.992874      -0.904588      -5.023935       0.103000                    
      -3.070930       0.380823      -5.840083       0.103000                    
      -2.417848       0.136713      -3.545786      -0.200000                    
       3.242453      -7.533258      -2.738561      -0.200000                    
       3.583606      -5.850608      -2.187856      -0.006000                    
       2.766659      -5.502144      -1.556106       0.103000                    
       4.514007      -5.835406      -1.620349       0.103000                    
       3.713995      -4.932424      -3.404545      -0.006000                    
       4.530934      -5.280895      -4.036296       0.103000                    
       2.783601      -4.947634      -3.972055       0.103000                    
       4.055148      -3.249788      -2.853845      -0.200000                    
       9.505817       5.330729       1.790103      -0.200000                    
       7.786124       5.795394       1.511636      -0.006000                    
       7.746696       6.775516       1.036503       0.103000                    
       7.310544       5.058361       0.864693       0.103000                    
       7.048994       5.848612       2.851095      -0.006000                    
       7.088423       4.868495       3.326219       0.103000                    
       7.524573       6.585650       3.498029       0.103000                    
       5.329302       6.313291       2.572633      -0.200000                    
       1.122457      11.103013      -1.395767      -0.200000                    
      -0.042399       9.798601      -0.957006      -0.006000                    
       0.381407       8.829327      -1.219378       0.103000                    
      -0.238474       9.831622       0.114634       0.103000                    
      -1.351486      10.005835      -1.721001      -0.006000                    
      -1.775292      10.975112      -1.458638       0.103000                    
      -1.155411       9.972814      -2.792641       0.103000                    
      -2.516342       8.701427      -1.282249      -0.200000                    
      -1.166270      -2.245849      -6.055161      -0.200000                    
       0.604914      -2.122952      -5.740811      -0.006000                    
       0.837056      -2.586616      -4.782123       0.103000                    
       1.151186      -2.633954      -6.533554       0.103000                    
       1.015788      -0.649732      -5.706936      -0.006000                    
       0.783639      -0.186078      -6.665618       0.103000                    
       0.469522      -0.138737      -4.914196       0.103000                    
       2.786964      -0.526842      -5.392588      -0.200000                    
      -7.256508       4.444301       4.484378      -0.200000                    
      -6.461173       3.319315       5.647481      -0.006000                    
      -5.490575       3.721979       5.936841       0.103000                    
      -7.087519       3.208917       6.532617       0.103000                    
      -6.269251       1.953489       4.985659      -0.006000                    
      -7.239849       1.550825       4.696300       0.103000                    
      -5.642912       2.063881       4.100521       0.103000                    
      -5.473916       0.828504       6.148762      -0.200000                    
       7.496254       5.157520       6.522201      -0.200000                    
       6.409654       3.726533       6.672199      -0.006000                    
       6.684386       2.981572       5.925549       0.103000                    
       6.510040       3.296658       7.668736       0.103000                    
       4.960062       4.161311       6.448627      -0.006000                    
       4.685330       4.906272       7.195279       0.103000                    
       4.859683       4.591179       5.452088       0.103000                    
       3.873477       2.730323       6.598625      -0.200000                    
      -1.252857       8.703452       2.822807      -0.200000                    
      -0.532667      10.070785       3.751615      -0.006000                    
      -0.480941      10.954707       3.116053       0.103000                    
      -1.152107      10.284914       4.622470       0.103000                    
       0.876288       9.689784       4.209928      -0.006000                    
       0.824569       8.805867       4.845491       0.103000                    
       1.495735       9.475661       3.339075       0.103000                    
       1.596485      11.057122       5.138738      -0.200000                    
       2.370697       8.942862      -3.752430      -0.200000                    
       2.263056       9.788115      -5.341428      -0.006000                    
       2.936352      10.645215      -5.343651       0.103000                    
       2.546490       9.101060      -6.138663       0.103000                    
       0.827937      10.267113      -5.568014      -0.006000                    
       0.154635       9.410020      -5.565790       0.103000                    
       0.544495      10.954163      -4.770782       0.103000                    
       0.720289      11.112374      -7.157011      -0.200000                    
      -1.844233       0.699705      -8.074449      -0.200000                    
      -1.969395       2.312127      -7.277345      -0.006000                    
      -2.124265       2.177512      -6.206924       0.103000                    
      -1.049506       2.872461      -7.443965       0.103000                    
      -3.150182       3.083574      -7.869829      -0.006000                    
      -2.995313       3.218189      -8.940250       0.103000                    
      -4.070071       2.523236      -7.703199       0.103000                    
      -3.275344       4.695996      -7.072726      -0.200000                    
      10.141145       2.291406      -0.911811      -0.200000                    
       9.944313       3.665037      -2.062971      -0.006000                    
       8.922887       3.677343      -2.443072       0.103000                    
      10.152095       4.603180      -1.548502       0.103000                    
      10.919874       3.496732      -3.229284      -0.006000                    
      11.941295       3.484433      -2.849180       0.103000                    
      10.712079       2.558587      -3.743742       0.103000                    
      10.723029       4.870365      -4.380443      -0.200000                    
      -1.077171      -0.484574       7.990951      -0.200000                    
      -2.256692       0.789826       7.505574      -0.006000                    
      -2.004976       1.158485       6.511264       0.103000                    
      -3.262085       0.369137       7.493610       0.103000                    
      -2.199824       1.945209       8.506721      -0.006000                    
      -2.451533       1.576543       9.501029       0.103000                    
      -1.194431       2.365901       8.518675       0.103000                    
      -3.379338       3.219619       8.021336      -0.200000                    
       7.976429       7.318198      -1.973430      -0.200000                    
       8.258769       7.257591      -3.753176      -0.006000                    
       9.328824       7.310387      -3.953564       0.103000                    
       7.859542       6.325576      -4.153102       0.103000                    
       7.556359       8.440941      -4.421502      -0.006000                    
       6.486304       8.388130      -4.221119       0.103000                    
       7.955587       9.372942      -4.021581       0.103000                    
       7.838692       8.380327      -6.201251      -0.200000                    
       3.020455       6.934337       6.153451      -0.200000                    
       1.552986       6.762595       7.186865      -0.006000                    
       1.562025       7.529297       7.961477       0.103000                    
       0.660137       6.877146       6.572363       0.103000                    
       1.548059       5.379023       7.839620      -0.006000                    
       1.539013       4.612312       7.065006       0.103000                    
       2.440908       5.264474       8.454113       0.103000                    
       0.080597       5.207278       8.873021      -0.200000                    
       4.405460       6.939123      -5.514212      -0.200000                    
       3.931687       6.852557      -7.251738      -0.006000                    
       2.993256       6.306293      -7.345923       0.103000                    
       3.806252       7.861245      -7.645079       0.103000                    
       5.023557       6.129534      -8.042582      -0.006000                    
       5.961995       6.675790      -7.948399       0.103000                    
       5.148998       5.120838      -7.649242       0.103000                    
       4.549784       6.042967      -9.780107      -0.200000                    
       5.279758      -5.167688      -7.164636      -0.200000                    
       5.917744      -3.514727      -7.498738      -0.006000                    
       6.882073      -3.591804      -8.000806       0.103000                    
       5.217255      -2.976880      -8.137497       0.103000                    
       6.088969      -2.758065      -6.180206      -0.006000                    
       5.124633      -2.680982      -5.678136       0.103000                    
       6.789451      -3.295907      -5.541444       0.103000                    
       6.726948      -1.105098      -6.514306      -0.200000                    
      -6.953379       8.784838       1.321585      -0.200000                    
      -6.259853       7.959049       2.766600      -0.006000                    
      -7.046080       7.793691       3.503100       0.103000                    
      -5.833769       7.001221       2.468390       0.103000                    
      -5.165063       8.835282       3.378191      -0.006000                    
      -4.378837       9.000641       2.641691       0.103000                    
      -5.591147       9.793107       3.676411       0.103000                    
      -4.471537       8.009489       4.823216      -0.200000                    
       2.682709      -7.122091       5.376076      -0.200000                    
       1.466226      -7.228985       6.702596      -0.006000                    
       1.198455      -8.272612       6.867111       0.103000                    
       1.888424      -6.813383       7.617443       0.103000                    
       0.216192      -6.437672       6.313118      -0.006000                    
       0.483962      -5.394046       6.148602       0.103000                    
      -0.206006      -6.853275       5.398271       0.103000                    
      -1.000291      -6.544566       7.639637      -0.200000                    
      -9.303488      -0.097454      -2.405374      -0.200000                    
      -9.684503      -1.366900      -1.182973      -0.006000                    
      -8.762035      -1.849669      -0.860560       0.103000                    
     -10.174678      -0.908965      -0.323920       0.103000                    
     -10.615172      -2.410092      -1.804256      -0.006000                    
     -11.537633      -1.927317      -2.126667       0.103000                    
     -10.124997      -2.868028      -2.663309       0.103000                    
     -10.996187      -3.679539      -0.581855      -0.200000                    
      -6.997252       4.249282      -3.644618      -0.200000                    
      -7.640525       5.158964      -5.062231      -0.006000                    
      -7.960516       6.150760      -4.743024       0.103000                    
      -6.860491       5.254210      -5.817505       0.103000                    
      -8.832901       4.404805      -5.653701      -0.006000                    
      -8.512901       3.413014      -5.972905       0.103000                    
      -9.612934       4.309558      -4.898427       0.103000                    
      -9.476166       5.314492      -7.071311      -0.200000                    
      -8.280459       4.033366       0.087420      -0.200000                    
      -9.538095       5.325115       0.112136      -0.006000                    
     -10.454527       4.949075      -0.342499       0.103000                    
      -9.737446       5.618794       1.142640       0.103000                    
      -9.039053       6.537806      -0.675689      -0.006000                    
      -8.122636       6.913849      -0.221063       0.103000                    
      -8.839718       6.244130      -1.706202       0.103000                    
     -10.296690       7.829555      -0.650973      -0.200000                    
       9.881216       2.049532       2.843038      -0.200000                    
       9.392242       2.661381       4.467035      -0.006000                    
       9.399372       3.751258       4.462228       0.103000                    
       8.389430       2.305402       4.702863       0.103000                    
      10.375399       2.150203       5.521772      -0.006000                    
      10.368269       1.060325       5.526579       0.103000                    
      11.378203       2.506188       5.285947       0.103000                    
       9.886417       2.762057       7.145772      -0.200000                    
      12.663856      -3.283738      -0.880367      -0.200000                    
      11.046078      -4.035263      -0.617741      -0.006000                    
      11.025284      -5.023350      -1.077276       0.103000                    
      10.857387      -4.127646       0.451756       0.103000                    
       9.966419      -3.155944      -1.251404      -0.006000                    
       9.987222      -2.167850      -0.791867       0.103000                    
      10.155104      -3.063553      -2.320898       0.103000                    
       8.348640      -3.907468      -0.988778      -0.200000                    
      -6.904857      -6.774158       6.712125      -0.200000                    
      -5.906513      -5.399106       7.314871      -0.006000                    
      -6.548102      -4.537704       7.499993       0.103000                    
      -5.410333      -5.688630       8.241111       0.103000                    
      -4.854399      -5.034533       6.265828      -0.006000                    
      -4.212796      -5.895932       6.080696       0.103000                    
      -5.350572      -4.744999       5.339582       0.103000                    
      -3.856041      -3.659476       6.868563      -0.200000                    
       7.522564      -0.435405      10.289178      -0.200000                    
       7.429854      -0.065381       8.526945      -0.006000                    
       6.853119       0.847218       8.376903       0.103000                    
       8.435967       0.071101       8.130669       0.103000                    
       6.748039      -1.224549       7.797686      -0.006000                    
       7.324773      -2.137149       7.947730       0.103000                    
       5.741919      -1.361037       8.193960       0.103000                    
       6.655329      -0.854530       6.035462      -0.200000                    
       2.333405     -10.926000       0.631583      -0.200000                    
       1.119300     -10.876208       1.963646      -0.006000                    
       0.163801     -10.527650       1.571854       0.103000                    
       0.997886     -11.875115       2.382447       0.103000                    
       1.600713      -9.920525       3.056933      -0.006000                    
       2.556212     -10.269084       3.448726       0.103000                    
       1.722120      -8.921607       2.638126       0.103000                    
       0.386609      -9.870734       4.388996      -0.200000                    
     -11.177665      -3.339682       3.454085      -0.200000                    
      -9.449680      -2.837773       3.568393      -0.006000                    
      -8.816995      -3.610383       3.131625       0.103000                    
      -9.306340      -1.902091       3.028111       0.103000                    
      -9.072097      -2.640570       5.037731      -0.006000                    
      -9.704776      -1.867955       5.474501       0.103000                    
      -9.215430      -3.576248       5.578014       0.103000                    
      -7.344107      -2.138652       5.152031      -0.200000                    
       9.077296      -7.018196       0.293300      -0.200000                    
       7.829223      -7.959606       1.191598      -0.006000                    
       6.953428      -8.099350       0.558068       0.103000                    
       8.236602      -8.931925       1.468377       0.103000                    
       7.427206      -7.197227       2.455535      -0.006000                    
       8.303008      -7.057491       3.089062       0.103000                    
       7.019835      -6.224919       2.178762       0.103000                    
       6.179140      -8.138649       3.353839      -0.200000                    
      -8.458594      -2.548836      -5.416840      -0.200000                    
      -7.569544      -3.124725      -6.875893      -0.006000                    
      -6.962015      -3.990667      -6.613207       0.103000                    
      -8.283907      -3.403305      -7.650506       0.103000                    
      -6.664499      -2.006368      -7.395978      -0.006000                    
      -7.272028      -1.140427      -7.658665       0.103000                    
      -5.950136      -1.727792      -6.621356       0.103000                    
      -5.775455      -2.582251      -8.855029      -0.200000                    
       9.573141      12.241041      -0.318667      -0.200000                    