%nprocshared=4                                                                       
%mem=8GB                                                                             
#P pop=chelpg cam-b3lyp/gen scf=qc int=ultrafine charge td(nstates=10)               
                                                                                     
pNA CAM-B3LYP def2-TZVPD Single point - solvent def2-SV(P)                           
                                                                                     
0 1                                                                                  
 C       1.389235       0.000000      -0.000000                                 
 C       0.000000       0.000000      -0.000000                                 
 C      -0.711164       1.193419       0.000000                                 
 C      -0.034074       2.386367       0.000141                                 
 C       1.370482       2.412065       0.000933                                 
 C       2.067428       1.192342       0.000144                                 
 H       1.924301      -0.937208       0.000967                                 
 H      -1.790186       1.173300       0.000962                                 
 H      -0.583208       3.318526      -0.000772                                 
 H       3.149318       1.197759      -0.000767                                 
 N      -0.711160      -1.251627       0.001756                                 
 O      -1.932441      -1.229701       0.002542                                 
 O      -0.067142      -2.289538       0.002483                                 
 N       2.040236       3.590780      -0.024683                                 
 H       1.546357       4.451509       0.132529                                 
 H       3.032458       3.607145       0.132525                                 
Cl       1.559268       6.452734      -1.321880                                 
 C       0.839033       7.853055      -2.200124                                 
 H      -0.233698       7.697694      -2.314544                                 
 H       1.015610       8.767302      -1.633625                                 
 C       1.486009       7.976389      -3.580923                                 
 H       2.558728       8.131746      -3.466496                                 
 H       1.309432       7.062143      -4.147422                                 
Cl       0.765762       9.376707      -4.459162                                 
Cl      -2.719268      -5.179379       1.623942                                 
 C      -2.249468      -3.647102       2.450022                                 
 H      -1.776034      -3.878766       3.404027                                 
 H      -1.550555      -3.094920       1.821902                                 
 C      -3.497089      -2.795999       2.693855                                 
 H      -3.970533      -2.564333       1.739848                                 
 H      -4.196012      -3.348179       3.321973                                 
Cl      -3.027301      -1.263726       3.519941                                 
Cl       6.126964       2.260388      -2.358454                                 
 C       5.645042       3.786886      -3.188239                                 
 H       5.959213       4.641305      -2.588893                                 
 H       6.121671       3.834606      -4.167271                                 
 C       4.125132       3.816191      -3.359652                                 
 H       3.810963       2.961777      -3.959005                                 
 H       3.648506       3.768478      -2.380628                                 
Cl       3.643210       5.342689      -4.189437                                 
Cl       1.538625      -6.516308       1.744061                                 
 C       1.675008      -5.211819       0.506898                                 
 H       1.033684      -5.447552      -0.342251                                 
 H       1.365391      -4.262529       0.943849                                 
 C       3.126457      -5.106153       0.035163                                 
 H       3.767793      -4.870415       0.884306                                 
 H       3.436084      -6.055444      -0.401787                                 
Cl       3.262843      -3.801650      -1.202001                                 
Cl       0.669873       5.998959       2.066485                                 
 C      -0.669718       6.715952       3.037190                                 
 H      -0.561738       6.419549       4.080467                                 
 H      -0.631810       7.802620       2.962192                                 
 C      -2.012309       6.214899       2.501643                                 
 H      -2.120289       6.511293       1.458360                                 
 H      -2.050216       5.128230       2.576641                                 
Cl      -3.351900       6.931891       3.472348                                 
                                                                                
       0.615865      -4.813413      -3.137426      -0.200000                    
      -0.982845      -3.993308      -2.987748      -0.006000                    
      -0.853264      -3.032093      -2.490521       0.103000                    
      -1.404735      -3.835282      -3.980216       0.103000                    
      -1.930004      -4.868782      -2.165099      -0.006000                    
      -2.059592      -5.829981      -2.662329       0.103000                    
      -1.508111      -5.026793      -1.172632       0.103000                    
      -3.528713      -4.048676      -2.015421      -0.200000                    
       4.300148      -0.728212       1.720805      -0.200000                    
       5.680523      -0.078808       2.681899      -0.006000                    
       6.489292      -0.809302       2.695982       0.103000                    
       6.034892       0.847242       2.229315       0.103000                    
       5.219223       0.198074       4.113998      -0.006000                    
       4.410467       0.928572       4.099910       0.103000                    
       4.864864      -0.727978       4.566584       0.103000                    
       6.599608       0.847484       5.075101      -0.200000                    
       1.662703       1.483607       3.453794      -0.200000                    
       0.263409       2.573415       3.777990      -0.006000                    
       0.401893       3.066519       4.740087       0.103000                    
       0.197355       3.324327       2.990767       0.103000                    
      -1.026683       1.751752       3.807738      -0.006000                    
      -1.165179       1.258643       2.845646       0.103000                    
      -0.960641       1.000843       4.594972       0.103000                    
      -2.425986       2.841569       4.131938      -0.200000                    
      -4.982079       3.755127      -4.560372      -0.200000                    
      -3.607814       4.070465      -3.436620      -0.006000                    
      -3.193728       3.122401      -3.093616       0.103000                    
      -2.835757       4.637521      -3.956548       0.103000                    
      -4.106614       4.873384      -2.233765      -0.006000                    
      -4.520700       5.821447      -2.576769       0.103000                    
      -4.878670       4.306327      -1.713837       0.103000                    
      -2.732346       5.188727      -1.110021      -0.200000                    
      -4.592144       1.111994      -1.251081      -0.200000                    
      -5.842754      -0.176546      -1.088151      -0.006000                    
      -5.724335      -0.678868      -0.128148       0.103000                    
      -6.835103       0.270735      -1.144465       0.103000                    
      -5.677464      -1.193514      -2.219023      -0.006000                    
      -5.795896      -0.691196      -3.179021       0.103000                    
      -4.685125      -1.640793      -2.162711       0.103000                    
      -6.928084      -2.482052      -2.056095      -0.200000                    
      -0.840393       2.347456      -3.980824      -0.200000                    
      -1.770635       0.994092      -4.725116      -0.006000                    
      -2.706659       1.376747      -5.131776       0.103000                    
      -1.182596       0.545950      -5.525948       0.103000                    
      -2.071896      -0.063225      -3.661342      -0.006000                    
      -1.135885      -0.445885      -3.254676       0.103000                    
      -2.659945       0.384919      -2.860512       0.103000                    
      -3.002147      -1.416587      -4.405635      -0.200000                    
      -0.328091      -1.582466       5.174550      -0.200000                    
       1.363088      -1.975870       4.688704      -0.006000                    
       1.778092      -1.148120       4.113795       0.103000                    
       1.968769      -2.139220       5.579993       0.103000                    
       1.365765      -3.243142       3.831732      -0.006000                    
       0.950771      -4.070894       4.406642       0.103000                    
       0.760094      -3.079793       2.940445       0.103000                    
       3.056957      -3.636541       3.345880      -0.200000                    
       4.436365      10.014639       1.890696      -0.200000                    
       4.741951       8.248226       1.697556      -0.006000                    
       5.706656       7.995907       2.137575       0.103000                    
       3.954942       7.686024       2.200045       0.103000                    
       4.751910       7.892131       0.209782      -0.006000                    
       3.787204       8.144450      -0.230236       0.103000                    
       5.538918       8.454341      -0.292700       0.103000                    
       5.057496       6.125718       0.016642      -0.200000                    
       6.875132       3.286105       2.619397      -0.200000                    
       7.235202       3.444575       0.859816      -0.006000                    
       7.331056       2.453020       0.417581       0.103000                    
       6.424816       3.984320       0.370034       0.103000                    
       8.544575       4.213725       0.674516      -0.006000                    
       8.448711       5.205281       1.116750       0.103000                    
       9.354951       3.673981       1.164297       0.103000                    
       8.904633       4.372197      -1.085053      -0.200000                    
       0.414571      -2.164339      -5.746443      -0.200000                    
       2.016596      -1.387082      -5.463167      -0.006000                    
       2.809278      -2.115589      -5.633019       0.103000                    
       2.140283      -0.548753      -6.148655       0.103000                    
       2.090099      -0.881170      -4.021279      -0.006000                    
       1.297418      -0.152663      -3.851426       0.103000                    
       1.966416      -1.719493      -3.335797       0.103000                    
       3.692125      -0.103913      -3.738002      -0.200000                    
       6.206821      -2.873979      -4.047565      -0.200000                    
       7.115654      -1.866975      -2.859722      -0.006000                    
       7.971408      -2.429095      -2.486044       0.103000                    
       7.463607      -0.955914      -3.346424       0.103000                    
       6.196919      -1.501843      -1.692272      -0.006000                    
       5.341167      -0.939716      -2.065957       0.103000                    
       5.848969      -2.412898      -1.205577       0.103000                    
       7.105755      -0.494833      -0.504437      -0.200000                    
      -5.230311       3.989529       1.581785      -0.200000                    
      -6.595846       2.868344       1.222326      -0.006000                    
      -7.541641       3.395111       1.348524       0.103000                    
      -6.512649       2.511420       0.195885       0.103000                    
      -6.543996       1.677639       2.181453      -0.006000                    
      -5.598198       1.150870       2.055242       0.103000                    
      -6.627193       2.034564       3.207895       0.103000                    
      -7.909531       0.556446       1.821988      -0.200000                    
       7.581789      -5.132101      -0.839932      -0.200000                    
       7.244960      -5.237199       0.928249      -0.006000                    
       6.311706      -5.776721       1.089136       0.103000                    
       8.060085      -5.765235       1.422891       0.103000                    
       7.124812      -3.827070       1.509159      -0.006000                    
       8.058065      -3.287548       1.348272       0.103000                    
       6.309687      -3.299026       1.014524       0.103000                    
       6.787982      -3.932168       3.277340      -0.200000                    
       2.966177       6.992987       5.557399      -0.200000                    
       1.969805       8.464257       5.251614      -0.006000                    
       1.603591       8.448484       4.225151       0.103000                    
       1.124210       8.480043       5.939106       0.103000                    
       2.825610       9.713716       5.467984      -0.006000                    
       3.191824       9.729487       6.494447       0.103000                    
       3.671202       9.697923       4.780499       0.103000                    
       1.829238      11.184985       5.162199      -0.200000                    
      -0.923445      -7.976691      -0.644501      -0.200000                    
       0.532719      -8.355517      -1.637974      -0.006000                    
       0.597666      -7.654438      -2.469966       0.103000                    
       1.426556      -8.270317      -1.020143       0.103000                    
       0.422742      -9.781521      -2.180867      -0.006000                    
       0.357793     -10.482606      -1.348869       0.103000                    
      -0.471098      -9.866727      -2.798692       0.103000                    
       1.878916     -10.160357      -3.174345      -0.200000                    
       7.916887       6.688168       4.011294      -0.200000                    
       7.596194       5.535470       5.360114      -0.006000                    
       7.701920       4.513057       4.997520       0.103000                    
       8.309026       5.711058       6.165681       0.103000                    
       6.174127       5.745849       5.883448      -0.006000                    
       6.068403       6.768260       6.246027       0.103000                    
       5.461295       5.570253       5.077874       0.103000                    
       5.853433       4.593143       7.232261      -0.200000                    
      -8.261189      -6.947254      -1.302096      -0.200000                    
      -8.358739      -5.524950      -0.198263      -0.006000                    
      -8.421502      -4.610566      -0.788115       0.103000                    
      -9.244284      -5.613164       0.431004       0.103000                    
      -7.109704      -5.477408       0.683799      -0.006000                    
      -7.046939      -6.391792       1.273652       0.103000                    
      -6.224167      -5.389193       0.054530       0.103000                    
      -7.207252      -4.055104       1.787632      -0.200000                    
       2.367520       3.070190      -7.309335      -0.200000                    
       1.095627       4.322767      -7.055847      -0.006000                    
       0.762934       4.298311      -6.018227       0.103000                    
       1.504326       5.307166      -7.283469       0.103000                    
      -0.091251       4.038253      -7.978180      -0.006000                    
       0.241445       4.062707      -9.015816       0.103000                    
      -0.499949       3.053854      -7.750559       0.103000                    
      -1.363143       5.290823      -7.724700      -0.200000                    
       6.506574       7.964156      -2.797803      -0.200000                    
       6.808363       8.677539      -4.425957      -0.006000                    
       7.138151       9.710446      -4.314895       0.103000                    
       7.580136       8.102502      -4.937495       0.103000                    
       5.517560       8.640304      -5.246212      -0.006000                    
       5.187782       7.607395      -5.357271       0.103000                    
       4.745790       9.215347      -4.734681       0.103000                    
       5.819352       9.353693      -6.874373      -0.200000                    
      -8.565976       5.682707      -0.871375      -0.200000                    
      -7.424747       7.012749      -1.295025      -0.006000                    
      -6.743664       6.672759      -2.075080       0.103000                    
      -7.987652       7.874273      -1.653999       0.103000                    
      -6.621534       7.409779      -0.055022      -0.006000                    
      -7.302617       7.749769       0.725034       0.103000                    
      -6.058630       6.548254       0.303953       0.103000                    
      -5.480308       8.739814      -0.478664      -0.200000                    
      -1.756934     -10.302853       2.427498      -0.200000                    
      -1.927823      -8.597194       2.986548      -0.006000                    
      -0.966450      -8.090097       2.905810       0.103000                    
      -2.662976      -8.083521       2.367155       0.103000                    
      -2.390697      -8.582395       4.444600      -0.006000                    
      -3.352079      -9.089499       4.525331       0.103000                    
      -1.655544      -9.096076       5.063989       0.103000                    
      -2.561586      -6.876744       5.003645      -0.200000                    
      -4.032410      -6.089091      -6.355811      -0.200000                    
      -3.672962      -4.771514      -7.532999      -0.006000                    
      -3.701441      -5.171646      -8.546414       0.103000                    
      -4.417212      -3.981582      -7.432982       0.103000                    
      -2.282404      -4.200070      -7.249843      -0.006000                    
      -2.253924      -3.799938      -6.236428       0.103000                    
      -1.538163      -4.990008      -7.349868       0.103000                    
      -1.922956      -2.882502      -8.427037      -0.200000                    
      -1.609402       2.452797       7.760547      -0.200000                    
      -2.110519       0.728419       7.922823      -0.006000                    
      -1.494925       0.108085       7.271562       0.103000                    
      -1.982700       0.408433       8.956873       0.103000                    
      -3.580166       0.584726       7.523073      -0.006000                    
      -4.195763       1.205054       8.174342       0.103000                    
      -3.707988       0.904705       6.489031       0.103000                    
      -4.081286      -1.139659       7.685356      -0.200000                    
       2.849652       3.882093       8.314244      -0.200000                    
       2.890441       2.199272       7.668168      -0.006000                    
       2.353104       2.160467       6.720689       0.103000                    
       3.925257       1.894764       7.511983       0.103000                    
       2.226413       1.252343       8.669545      -0.006000                    
       2.763751       1.291155       9.617031       0.103000                    
       1.191597       1.556858       8.825738       0.103000                    
       2.267202      -0.430478       8.023469      -0.200000                    
      -1.984026      10.035466       1.963534      -0.200000                    
      -2.516979      11.496586       1.051469      -0.006000                    
      -1.951750      12.364017       1.392099       0.103000                    
      -2.342296      11.344152      -0.013522       0.103000                    
      -4.008747      11.733239       1.294243      -0.006000                    
      -4.573975      10.865808       0.953614       0.103000                    
      -4.183429      11.885674       2.359234       0.103000                    
      -4.541698      13.194360       0.382178      -0.200000                    
       7.306484       1.483829      -5.593804      -0.200000                    
       8.253635       0.370265      -6.649160      -0.006000                    
       8.649976       0.924772      -7.499679       0.103000                    
       9.077588      -0.058262      -6.078706       0.103000                    
       7.344142      -0.752348      -7.152085      -0.006000                    
       6.947814      -1.306850      -6.301572       0.103000                    
       6.520201      -0.323824      -7.722551       0.103000                    
       8.291296      -1.865905      -8.207449      -0.200000                    
      -3.893914       8.528703      -3.254583      -0.200000                    
      -2.885005      10.015546      -3.105100      -0.006000                    
      -2.367610      10.008912      -2.145834       0.103000                    
      -2.153407      10.041182      -3.912601       0.103000                    
      -3.782391      11.251511      -3.191327      -0.006000                    
      -4.299785      11.258139      -4.150599       0.103000                    
      -4.513988      11.225876      -2.383826       0.103000                    
      -2.773483      12.738348      -3.041851      -0.200000                    
       3.474145      14.492839      -0.255545      -0.200000                    
       3.634385      12.711285      -0.482099      -0.006000                    
       4.474412      12.343946       0.107256       0.103000                    
       2.718309      12.219378      -0.155350       0.103000                    
       3.877304      12.405166      -1.961158      -0.006000                    
       3.037277      12.772498      -2.550519       0.103000                    
       4.793380      12.897064      -2.287913       0.103000                    
       4.037544      10.623604      -2.187718      -0.200000                    
       6.557695      -7.602604      -3.010760      -0.200000                    
       4.967349      -7.349831      -3.821766      -0.006000                    
       4.614309      -8.295630      -4.232541       0.103000                    
       4.244691      -6.976129      -3.096470       0.103000                    
       5.127560      -6.331622      -4.952230      -0.006000                    
       5.480610      -5.385825      -4.541453       0.103000                    
       5.850219      -6.705324      -5.677526       0.103000                    
       3.537224      -6.078850      -5.763234      -0.200000                    
      12.129526       1.690573       0.060187      -0.200000                    
      11.145767       0.708962       1.208971      -0.006000                    
      11.028817       1.254267       2.145421       0.103000                    
      10.164513       0.516839       0.775158       0.103000                    
      11.852704      -0.620669       1.478597      -0.006000                    
      11.969655      -1.165974       0.542148       0.103000                    
      12.833959      -0.428546       1.912410       0.103000                    
      10.868946      -1.602279       2.627382      -0.200000                    
      -7.499845       4.549152       4.357118      -0.200000                    
      -6.247028       5.177684       5.491313      -0.006000                    
      -5.272775       5.159867       5.002997       0.103000                    
      -6.493287       6.201069       5.774154       0.103000                    
      -6.205606       4.299147       6.743025      -0.006000                    
      -7.179868       4.316964       7.231339       0.103000                    
      -5.959359       3.275757       6.460190       0.103000                    
      -4.952798       4.927671       7.877212      -0.200000                    
      -5.994146     -11.425762       0.678411      -0.200000                    
      -4.905997     -10.049742       0.262058      -0.006000                    
      -4.695247      -9.468427       1.159605       0.103000                    
      -3.973016     -10.435427      -0.148703       0.103000                    
      -5.588278      -9.155900      -0.775222      -0.006000                    
      -5.799028      -9.737216      -1.672769       0.103000                    
      -6.521259      -8.770216      -0.364462       0.103000                    
      -4.500120      -7.779875      -1.191568      -0.200000                    
       4.117191       5.407421      -9.058496      -0.200000                    
       5.818140       5.323314      -8.466470      -0.006000                    
       6.327151       4.484369      -8.940807       0.103000                    
       6.335677       6.249896      -8.714522       0.103000                    
       5.820889       5.128819      -6.949041      -0.006000                    
       5.311878       5.967763      -6.474704       0.103000                    
       5.303349       4.202231      -6.700982       0.103000                    
       7.521837       5.044712      -6.357016      -0.200000                    
       9.873803      12.324817       1.974639      -0.200000                    
       8.756929      10.939598       1.683734      -0.006000                    
       8.680162      10.338067       2.589379       0.103000                    
       7.771028      11.317946       1.413922       0.103000                    
       9.300951      10.076673       0.543641      -0.006000                    
       9.377708      10.678206      -0.362007       0.103000                    
      10.286844       9.698326       0.813450       0.103000                    
       8.184068       8.691458       0.252733      -0.200000                    
       0.682002      -7.417675       5.553274      -0.200000                    
       2.161865      -8.094840       4.777101      -0.006000                    
       1.937529      -8.372908       3.747408       0.103000                    
       2.953087      -7.345294       4.787148       0.103000                    
       2.622409      -9.332107       5.550040      -0.006000                    
       2.846742      -9.054046       6.579741       0.103000                    
       1.831175     -10.081649       5.540005       0.103000                    
       4.102259     -10.009274       4.773871      -0.200000                    
      -7.475245      -7.332853       7.578756      -0.200000                    
      -6.064572      -6.222193       7.413655      -0.006000                    
      -5.812881      -5.806605       8.389304       0.103000                    
      -5.210478      -6.774930       7.022614       0.103000                    
      -6.419630      -5.086312       6.452357      -0.006000                    
      -6.671321      -5.501892       5.476714       0.103000                    
      -7.273724      -4.533576       6.843398       0.103000                    
      -5.008956      -3.975644       6.287262      -0.200000                    
      10.148454       0.846924      -3.586979      -0.200000                    
      11.101760       2.353868      -3.853811      -0.006000                    
      11.422398       2.756170      -2.892957       0.103000                    
      11.976519       2.127579      -4.463356       0.103000                    
      10.232444       3.386433      -4.573843      -0.006000                    
       9.911798       2.984133      -5.534700       0.103000                    
       9.357686       3.612722      -3.964298       0.103000                    
      11.185751       4.893370      -4.840683      -0.200000                    
      -6.502538       0.310346       5.852879      -0.200000                    
      -8.009628      -0.628919       5.540926      -0.006000                    
      -8.747971       0.016044       5.064670       0.103000                    
      -7.784686      -1.469981       4.885234       0.103000                    
      -8.568446      -1.151137       6.865833      -0.006000                    
      -7.830102      -1.796099       7.342089       0.103000                    
      -8.793387      -0.310075       7.521525       0.103000                    
     -10.075526      -2.090411       6.553876      -0.200000                    
       3.442589      -6.377400       9.902905      -0.200000                    