%nprocshared=4                                                                       
%mem=8GB                                                                             
#P pop=chelpg cam-b3lyp/gen scf=qc int=ultrafine charge td(nstates=10)               
                                                                                     
pNA CAM-B3LYP def2-TZVPD Single point - solvent def2-SV(P)                           
                                                                                     
0 1                                                                                  
 C       1.389235       0.000000      -0.000000                                 
 C       0.000000       0.000000      -0.000000                                 
 C      -0.711164       1.193419       0.000000                                 
 C      -0.034074       2.386367       0.000141                                 
 C       1.370482       2.412065       0.000933                                 
 C       2.067428       1.192342       0.000144                                 
 H       1.924301      -0.937208       0.000967                                 
 H      -1.790186       1.173300       0.000962                                 
 H      -0.583208       3.318526      -0.000772                                 
 H       3.149318       1.197759      -0.000767                                 
 N      -0.711160      -1.251627       0.001756                                 
 O      -1.932441      -1.229701       0.002542                                 
 O      -0.067142      -2.289538       0.002483                                 
 N       2.040236       3.590780      -0.024683                                 
 H       1.546357       4.451509       0.132529                                 
 H       3.032458       3.607145       0.132525                                 
Cl      -4.080124       3.145501      -1.710941                                 
 C      -3.549592       1.609412      -2.491874                                 
 H      -3.140514       0.939503      -1.735692                                 
 H      -4.402750       1.133913      -2.975579                                 
 C      -2.475366       1.913598      -3.537760                                 
 H      -2.884447       2.583506      -4.293928                                 
 H      -1.622211       2.389096      -3.054040                                 
Cl      -1.944836       0.377508      -4.318679                                 
Cl      -1.513035      -4.700072      -3.421622                                 
 C       0.041542      -4.280817      -2.610180                                 
 H      -0.147779      -4.039405      -1.564319                                 
 H       0.723183      -5.129219      -2.669842                                 
 C       0.670320      -3.072258      -3.306166                                 
 H       0.859642      -3.313677      -4.352021                                 
 H      -0.011320      -2.223863      -3.246498                                 
Cl       2.224901      -2.653008      -2.494731                                 
Cl      -5.083505      -4.178751      -1.747809                                 
 C      -3.918032      -3.706424      -0.455704                                 
 H      -2.933435      -4.111950      -0.688222                                 
 H      -3.859335      -2.619567      -0.398587                                 
 C      -4.393539      -4.262188       0.887941                                 
 H      -5.378143      -3.856649       1.120460                                 
 H      -4.452241      -5.349040       0.830831                                 
Cl      -3.228079      -3.789859       2.180051                                 
Cl       4.644716      -1.125116       1.311353                                 
 C       4.391890      -0.553383       3.002540                                 
 H       3.761402      -1.264409       3.536289                                 
 H       5.354861      -0.471659       3.506504                                 
 C       3.710188       0.816010       2.981336                                 
 H       4.340676       1.527036       2.447587                                 
 H       2.747219       0.734279       2.477378                                 
Cl       3.457355       1.387731       4.672528                                 
Cl       5.588414       1.751735      -1.053897                                 
 C       5.534819       1.029498      -2.705112                                 
 H       6.095616       1.659174      -3.395734                                 
 H       5.976619       0.033417      -2.680787                                 
 C       4.081195       0.930769      -3.171568                                 
 H       3.520398       0.301094      -2.480947                                 
 H       3.639386       1.926846      -3.195896                                 
Cl       4.027596       0.208538      -4.822776                                 
                                                                                
       3.202242       8.023823       5.590974      -0.200000                    
       3.942702       7.239772       4.146036      -0.006000                    
       3.939900       7.940119       3.310899       0.103000                    
       4.968425       6.950856       4.374772       0.103000                    
       3.134843       5.996091       3.770598      -0.006000                    
       3.137644       5.295745       4.605735       0.103000                    
       2.109119       6.285007       3.541862       0.103000                    
       3.875303       5.212041       2.325660      -0.200000                    
      -2.364990       5.417133       1.413144      -0.200000                    
      -3.107574       6.499403       0.176990      -0.006000                    
      -4.162546       6.250583       0.062575       0.103000                    
      -3.011350       7.536798       0.497152       0.103000                    
      -2.391665       6.310985      -1.161776      -0.006000                    
      -1.336702       6.559801      -1.047364       0.103000                    
      -2.487890       5.273590      -1.481939       0.103000                    
      -3.134250       7.393254      -2.397931      -0.200000                    
       1.461880       7.434473      -0.707377      -0.200000                    
       2.622190       8.668754      -0.089998      -0.006000                    
       2.357541       9.648021      -0.488656       0.103000                    
       2.579193       8.695717       0.998743       0.103000                    
       4.039629       8.303736      -0.534938      -0.006000                    
       4.304270       7.324465      -0.136281       0.103000                    
       4.082619       8.276768      -1.623681       0.103000                    
       5.199929       9.538020       0.082433      -0.200000                    
      -0.240937      -1.377435       5.054472      -0.200000                    
      -0.776043      -0.239000       3.762787      -0.006000                    
       0.070960       0.009524       3.123440       0.103000                    
      -1.557260      -0.708515       3.165107       0.103000                    
      -1.322897       1.038189       4.403189      -0.006000                    
      -2.169898       0.789659       5.042543       0.103000                    
      -0.541686       1.507693       5.000874       0.103000                    
      -1.858011       2.176620       3.111501      -0.200000                    
      -9.288912      -2.249832       0.500109      -0.200000                    
      -7.746527      -1.665990       1.228926      -0.006000                    
      -7.958943      -0.863013       1.934651       0.103000                    
      -7.256668      -2.488199       1.750381       0.103000                    
      -6.826361      -1.143134       0.124244      -0.006000                    
      -6.613945      -1.946112      -0.581480       0.103000                    
      -7.316216      -0.320931      -0.397218       0.103000                    
      -5.283971      -0.559298       0.853054      -0.200000                    
      -6.218298       3.218215       0.766286      -0.200000                    
      -5.253535       3.359254       2.282955      -0.006000                    
      -4.289721       2.868644       2.147716       0.103000                    
      -5.095927       4.412045       2.517025       0.103000                    
      -6.009252       2.689495       3.432179      -0.006000                    
      -6.973078       3.180106       3.567424       0.103000                    
      -6.166864       1.636710       3.198117       0.103000                    
      -5.044492       2.830540       4.948855      -0.200000                    
       4.588512      -6.005973       5.724215      -0.200000                    
       3.273802      -5.013339       4.991375      -0.006000                    
       2.321231      -5.530719       5.104932       0.103000                    
       3.224844      -4.047153       5.493362       0.103000                    
       3.563873      -4.800690       3.504418      -0.006000                    
       4.516440      -4.283304       3.390869       0.103000                    
       3.612832      -5.766876       3.002431       0.103000                    
       2.249161      -3.808048       2.771573      -0.200000                    
       0.792882       2.238511      -6.158453      -0.200000                    
       0.811590       4.032363      -5.977812      -0.006000                    
       1.360010       4.475767      -6.808808       0.103000                    
      -0.211485       4.408242      -5.975587       0.103000                    
       1.494089       4.405126      -4.660379      -0.006000                    
       0.945670       3.961721      -3.829382       0.103000                    
       2.517156       4.029242      -4.662605       0.103000                    
       1.512797       6.198977      -4.479737      -0.200000                    
      -3.391593       5.665811       6.848832      -0.200000                    
      -2.588292       5.185440       5.307787      -0.006000                    
      -2.613441       4.100427       5.207516       0.103000                    
      -3.112374       5.640445       4.467390       0.103000                    
      -1.134762       5.662304       5.320193      -0.006000                    
      -1.109613       6.747319       5.420465       0.103000                    
      -0.610680       5.207301       6.160591       0.103000                    
      -0.331470       5.181930       3.779147      -0.200000                    
       7.156790       2.247867       4.259357      -0.200000                    
       7.732606       1.569306       2.691251      -0.006000                    
       6.912989       1.046481       2.198485       0.103000                    
       8.083975       2.379027       2.051853       0.103000                    
       8.879235       0.590134       2.949684      -0.006000                    
       9.698860       1.112964       3.442453       0.103000                    
       8.527879      -0.219588       3.589077       0.103000                    
       9.455064      -0.088428       1.381573      -0.200000                    
       7.395149       6.031654      -0.733882      -0.200000                    
       7.488406       6.595059       0.976315      -0.006000                    
       8.298760       7.316853       1.077640       0.103000                    
       6.545732       7.065120       1.256178       0.103000                    
       7.753476       5.399543       1.893308      -0.006000                    
       6.943130       4.677755       1.791984       0.103000                    
       8.696158       4.929488       1.613447       0.103000                    
       7.846741       5.962953       3.603508      -0.200000                    
      -0.213443      -6.279487       5.373798      -0.200000                    
      -0.632482      -6.219133       3.621185      -0.006000                    
      -0.833789      -5.188070       3.330779       0.103000                    
       0.200733      -6.605975       3.034615       0.103000                    
      -1.875830      -7.072669       3.364487      -0.006000                    
      -1.674517      -8.103737       3.654886       0.103000                    
      -2.709040      -6.685832       3.951050       0.103000                    
      -2.294864      -7.012320       1.611867      -0.200000                    
       6.103036      -3.760030      -2.349208      -0.200000                    
       6.768263      -3.760342      -0.673398      -0.006000                    
       7.812171      -3.447820      -0.696553       0.103000                    
       6.195563      -3.069505      -0.054752       0.103000                    
       6.671394      -5.169816      -0.086573      -0.006000                    
       5.627483      -5.482332      -0.063410       0.103000                    
       7.244091      -5.860648      -0.705211       0.103000                    
       7.336617      -5.170122       1.589244      -0.200000                    
       1.610787      -7.029088      -0.076200      -0.200000                    
       0.654527      -8.555118      -0.163992      -0.006000                    
       1.280556      -9.394407       0.138630       0.103000                    
      -0.205312      -8.484205       0.502037       0.103000                    
       0.170765      -8.771894      -1.599052      -0.006000                    
      -0.455277      -7.932604      -1.901668       0.103000                    
       1.030604      -8.842806      -2.265080       0.103000                    
      -0.785496     -10.297924      -1.686843      -0.200000                    
      -6.117082      -1.551402       4.768434      -0.200000                    
      -4.648388      -1.906274       5.752289      -0.006000                    
      -4.831915      -2.780075       6.377380       0.103000                    
      -3.805882      -2.103781       5.089665       0.103000                    
      -4.326663      -0.703009       6.640550      -0.006000                    
      -4.143136       0.170793       6.015459       0.103000                    
      -5.169163      -0.505499       7.303189       0.103000                    
      -2.857966      -1.057888       7.624411      -0.200000                    
      -1.026971      11.825181       0.103593      -0.200000                    
      -1.381060      11.046146       1.690646      -0.006000                    
      -1.734156      11.799500       2.394717       0.103000                    
      -2.148853      10.283993       1.558288       0.103000                    
      -0.107438      10.396945       2.235460      -0.006000                    
       0.245671       9.643592       1.531384       0.103000                    
       0.660354      11.159100       2.367818       0.103000                    
      -0.461514       9.617910       3.822509      -0.200000                    
       0.587137      -1.425283      -6.789119      -0.200000                    
      -1.015994      -1.990549      -7.390267      -0.006000                    
      -1.673750      -1.133239      -7.532762       0.103000                    
      -0.885715      -2.510535      -8.339252       0.103000                    
      -1.636608      -2.944367      -6.367805      -0.006000                    
      -0.978847      -3.801666      -6.225301       0.103000                    
      -1.766885      -2.424388      -5.418814       0.103000                    
      -3.239743      -3.509627      -6.968946      -0.200000                    
      -6.992859       2.147793      -4.954193      -0.200000                    
      -8.305456       1.987297      -3.728509      -0.006000                    
      -9.004843       2.816533      -3.834071       0.103000                    
      -8.832412       1.045524      -3.881309       0.103000                    
      -7.697747       2.009045      -2.324727      -0.006000                    
      -6.998361       1.179809      -2.219165       0.103000                    
      -7.170784       2.950805      -2.171928       0.103000                    
      -9.010342       1.848541      -1.099037      -0.200000                    
      -9.826886      -4.508932      -3.746252      -0.200000                    
      -8.635877      -3.385743      -2.990705      -0.006000                    
      -9.165287      -2.557805      -2.519362       0.103000                    
      -8.056673      -3.921903      -2.239055       0.103000                    
      -7.694349      -2.841693      -4.066769      -0.006000                    
      -7.164945      -3.669626      -4.538105       0.103000                    
      -8.273554      -2.305534      -4.818419       0.103000                    
      -6.503345      -1.718500      -3.311215      -0.200000                    
       5.611387      -2.364766      -5.915056      -0.200000                    
       4.307558      -3.272676      -6.767565      -0.006000                    
       3.612151      -2.568005      -7.223454       0.103000                    
       4.748283      -3.900831      -7.541608       0.103000                    
       3.557997      -4.151149      -5.764154      -0.006000                    
       4.253397      -4.855831      -5.308261       0.103000                    
       3.117272      -3.522995      -4.990112       0.103000                    
       2.254157      -5.059065      -6.616652      -0.200000                    
       3.292258      11.206203      -2.960335      -0.200000                    
       1.507101      10.970732      -3.053885      -0.006000                    
       1.123415      10.704226      -2.069136       0.103000                    
       1.035691      11.894154      -3.390053       0.103000                    
       1.192061       9.848101      -4.044262      -0.006000                    
       1.575752      10.114600      -5.029019       0.103000                    
       1.663471       8.924680      -3.708095       0.103000                    
      -0.593087       9.612635      -4.137810      -0.200000                    
      10.556322       3.483349      -3.659630      -0.200000                    
       8.858815       4.073884      -3.803426      -0.006000                    
       8.312650       3.836301      -2.890612       0.103000                    
       8.860977       5.153192      -3.955318       0.103000                    
       8.181270       3.393228      -4.994230      -0.006000                    
       8.727422       3.630811      -5.907039       0.103000                    
       8.179101       2.313933      -4.842337       0.103000                    
       6.483757       3.983776      -5.138025      -0.200000                    
       6.325065       7.618482      -3.672698      -0.200000                    
       7.635949       7.557561      -4.909093      -0.006000                    
       8.583515       7.836482      -4.448393       0.103000                    
       7.710416       6.547005      -5.310535       0.103000                    
       7.313770       8.533400      -6.042368      -0.006000                    
       6.366197       8.254466      -6.503064       0.103000                    
       7.239295       9.543951      -5.640928       0.103000                    
       8.624642       8.472471      -7.278752      -0.200000                    
       9.476652      -2.812601      -6.044803      -0.200000                    
       9.714906      -1.286442      -5.114767      -0.006000                    
      10.765182      -1.187871      -4.840739       0.103000                    
       9.418070      -0.436318      -5.728890       0.103000                    
       8.859005      -1.322769      -3.847304      -0.006000                    
       7.808721      -1.421345      -4.121334       0.103000                    
       9.155828      -2.172893      -3.233176       0.103000                    
       9.097251       0.203385      -2.917270      -0.200000                    
       0.455823       6.687383      10.239953      -0.200000                    
       1.149201       6.264017       8.630344      -0.006000                    
       0.493948       6.636201       7.842906       0.103000                    
       2.134702       6.718196       8.528139       0.103000                    
       1.274235       4.743848       8.512829      -0.006000                    
       1.929484       4.371671       9.300261       0.103000                    
       0.288730       4.289676       8.615028       0.103000                    
       1.967619       4.320494       6.903215      -0.200000                    
      -3.455959       4.525145      -6.075977      -0.200000                    
      -5.085158       5.080753      -6.612577      -0.006000                    
      -4.973719       5.883914      -7.340927       0.103000                    
      -5.621260       4.248422      -7.068385       0.103000                    
      -5.872268       5.593591      -5.405194      -0.006000                    
      -5.983710       4.790437      -4.676850       0.103000                    
      -5.336165       6.425921      -4.949386       0.103000                    
      -7.501462       6.149195      -5.941802      -0.200000                    
       5.264987      -2.807470      10.065290      -0.200000                    
       5.314728      -2.790925       8.263027      -0.006000                    
       6.051001      -3.514345       7.912993       0.103000                    
       4.332459      -3.052584       7.869776       0.103000                    
       5.702496      -1.393361       7.776417      -0.006000                    
       4.966229      -0.669929       8.126447       0.103000                    
       6.684762      -1.131694       8.169661       0.103000                    
       5.752244      -1.376804       5.974150      -0.200000                    
       4.515309      -6.650943      -3.146514      -0.200000                    
       4.032333      -8.350965      -2.789359      -0.006000                    
       4.863317      -8.873020      -2.315142       0.103000                    
       3.172702      -8.351575      -2.119271       0.103000                    
       3.662405      -9.060596      -4.093154      -0.006000                    
       2.831411      -8.538545      -4.567372       0.103000                    
       4.522024      -9.059983      -4.763250       0.103000                    
       3.179430     -10.760615      -3.736013      -0.200000                    
      -6.433701      -0.386042      -7.864193      -0.200000                    
      -4.817805      -0.041857      -8.586250      -0.006000                    
      -4.258467      -0.972012      -8.685779       0.103000                    
      -4.947751       0.411159      -9.569016       0.103000                    
      -4.048584       0.920559      -7.679368      -0.006000                    
      -4.607921       1.850713      -7.579841       0.103000                    
      -3.918637       0.467542      -6.696604       0.103000                    
      -2.432688       1.264743      -8.401425      -0.200000                    
       4.957166       2.127254       7.903388      -0.200000                    
       6.554112       2.944424       7.721929      -0.006000                    
       7.158482       2.762866       8.610583       0.103000                    
       7.067657       2.548505       6.845879       0.103000                    
       6.340199       4.449432       7.550140      -0.006000                    
       5.735832       4.630984       6.661478       0.103000                    
       5.826651       4.845358       8.426184       0.103000                    
       7.937144       5.266602       7.368680      -0.200000                    
      -4.709357      -6.483174      -4.492438      -0.200000                    
      -4.818186      -6.982940      -6.221378      -0.006000                    
      -4.173919      -6.344416      -6.825666       0.103000                    
      -4.498521      -8.020166      -6.320831       0.103000                    
      -6.264450      -6.847391      -6.701303      -0.006000                    
      -6.908718      -7.485916      -6.097015       0.103000                    
      -6.584116      -5.810165      -6.601850       0.103000                    
      -6.373280      -7.347157      -8.430243      -0.200000                    
      -2.646518       7.834101      -7.824728      -0.200000                    
      -0.952956       7.617410      -7.245166      -0.006000                    
      -0.674725       8.459883      -6.612115       0.103000                    
      -0.880101       6.692800      -6.672660       0.103000                    
      -0.007848       7.548734      -8.446189      -0.006000                    
      -0.286075       6.706256      -9.079248       0.103000                    
      -0.080707       8.473334      -9.018703       0.103000                    
       1.685718       7.332037      -7.866634      -0.200000                    
      -2.089206      -6.796252      -8.482121      -0.200000                    
      -1.581217      -8.197635      -7.467701      -0.006000                    
      -2.450781      -8.610718      -6.956677       0.103000                    
      -1.134891      -8.963073      -8.102399       0.103000                    
      -0.555332      -7.732477      -6.432525      -0.006000                    
       0.314232      -7.319394      -6.943548       0.103000                    
      -1.001650      -6.967028      -5.797832       0.103000                    
      -0.047334      -9.133857      -5.418103      -0.200000                    
      -5.938210      -9.575068      -1.839190      -0.200000                    
      -6.734692      -7.958792      -1.903783      -0.006000                    
      -5.989107      -7.194538      -2.122847       0.103000                    
      -7.495166      -7.959169      -2.684561       0.103000                    
      -7.390167      -7.659048      -0.554392      -0.006000                    
      -8.135756      -8.423297      -0.335321       0.103000                    
      -6.629694      -7.658672       0.226400       0.103000                    
      -8.186650      -6.042774      -0.618971      -0.200000                    
       6.391149      14.450938      -0.048732      -0.200000                    
       5.007920      13.315290      -0.267621      -0.006000                    
       4.278225      13.757522      -0.945779       0.103000                    
       5.370897      12.376600      -0.686000       0.103000                    
       4.348273      13.048111       1.086585      -0.006000                    
       5.077954      12.605880       1.764748       0.103000                    
       3.985290      13.986807       1.504971       0.103000                    
       2.965035      11.912457       0.867693      -0.200000                    
       2.054468      -8.570379       4.016766      -0.200000                    
       2.245066      -9.136960       5.717809      -0.006000                    
       3.228283      -8.848336       6.089143       0.103000                    
       1.473832      -8.683789       6.340539       0.103000                    
       2.109161     -10.659985       5.766251      -0.006000                    
       1.125942     -10.948601       5.394911       0.103000                    
       2.880395     -11.113155       5.143523       0.103000                    
       2.299757     -11.226558       7.467289      -0.200000                    
       1.323708      -0.994679      10.393700      -0.200000                    
       0.322242      -0.352519       9.038857      -0.006000                    
       0.750317      -0.669983       8.088109       0.103000                    
      -0.694687      -0.734979       9.125469       0.103000                    
       0.298814       1.175808       9.101946      -0.006000                    
      -0.129262       1.493273      10.052693       0.103000                    
       1.315754       1.558265       9.015342       0.103000                    
      -0.702657       1.817973       7.747111      -0.200000                    
       5.676304      10.774453       4.372230      -0.200000                    
       6.952877      10.921075       3.107421      -0.006000                    
       6.526565      10.687806       2.131822       0.103000                    
       7.342168      11.939072       3.100067       0.103000                    
       8.088961       9.943424       3.413830      -0.006000                    
       8.515267      10.176698       4.389436       0.103000                    
       7.699662       8.925440       3.421184       0.103000                    
       9.365536      10.090062       2.149024      -0.200000                    
       6.475180      -6.004498      -6.308286      -0.200000                    