%nprocshared=4                                                                       
%mem=8GB                                                                             
#P pop=chelpg cam-b3lyp/gen scf=qc int=ultrafine charge td(nstates=10)               
                                                                                     
pNA CAM-B3LYP def2-TZVPD Single point - solvent def2-SV(P)                           
                                                                                     
0 1                                                                                  
 C       1.389235       0.000000      -0.000000                                 
 C       0.000000       0.000000      -0.000000                                 
 C      -0.711164       1.193419       0.000000                                 
 C      -0.034074       2.386367       0.000141                                 
 C       1.370482       2.412065       0.000933                                 
 C       2.067428       1.192342       0.000144                                 
 H       1.924301      -0.937208       0.000967                                 
 H      -1.790186       1.173300       0.000962                                 
 H      -0.583208       3.318526      -0.000772                                 
 H       3.149318       1.197759      -0.000767                                 
 N      -0.711160      -1.251627       0.001756                                 
 O      -1.932441      -1.229701       0.002542                                 
 O      -0.067142      -2.289538       0.002483                                 
 N       2.040236       3.590780      -0.024683                                 
 H       1.546357       4.451509       0.132529                                 
 H       3.032458       3.607145       0.132525                                 
Cl       1.041661       6.470663      -0.406207                                 
 C       0.357334       8.063987       0.087681                                 
 H      -0.092006       7.975828       1.076760                                 
 H       1.152755       8.808639       0.114765                                 
 C      -0.709900       8.495027      -0.920086                                 
 H      -0.260552       8.583178      -1.909173                                 
 H      -1.505313       7.750368      -0.947179                                 
Cl      -1.394228      10.088343      -0.426204                                 
Cl      -4.008025      -1.436224       2.985370                                 
 C      -4.879042      -1.156635       1.431657                                 
 H      -4.161881      -1.137637       0.611126                                 
 H      -5.597513      -1.959727       1.268005                                 
 C      -5.616878       0.182005       1.494424                                 
 H      -6.334039       0.163007       2.314955                                 
 H      -4.898407       0.985097       1.658076                                 
Cl      -6.487895       0.461594      -0.059289                                 
Cl      -3.388524      -4.410706      -2.201494                                 
 C      -2.749662      -4.394639      -0.515521                                 
 H      -2.033304      -3.580533      -0.405917                                 
 H      -3.573109      -4.250984       0.183954                                 
 C      -2.056742      -5.726162      -0.220066                                 
 H      -2.773098      -6.540261      -0.329665                                 
 H      -1.233291      -5.869823      -0.919534                                 
Cl      -1.417879      -5.710095       1.465906                                 
Cl       1.384511       3.930693       4.959430                                 
 C       2.760662       3.477694       3.886140                                 
 H       3.603509       3.149796       4.494444                                 
 H       2.453911       2.668493       3.223566                                 
 C       3.176430       4.690080       3.050872                                 
 H       2.333582       5.017979       2.442568                                 
 H       3.483181       5.499280       3.713445                                 
Cl       4.552580       4.237081       1.977582                                 
Cl      -1.354985       4.725165      -2.223565                                 
 C      -1.167952       3.325519      -3.344682                                 
 H      -0.443242       3.574763      -4.119678                                 
 H      -0.819110       2.456729      -2.786563                                 
 C      -2.516919       3.006995      -3.992164                                 
 H      -3.241629       2.757751      -3.217168                                 
 H      -2.865767       3.875778      -4.550272                                 
Cl      -2.329894       1.607334      -5.113276                                 
                                                                                
      -6.434132       5.930577       1.790431      -0.200000                    
      -5.173168       4.710047       1.376735      -0.006000                    
      -4.193034       5.086353       1.669400       0.103000                    
      -5.378974       3.780478       1.907294       0.103000                    
      -5.189826       4.450548      -0.130830      -0.006000                    
      -6.169960       4.074234      -0.423501       0.103000                    
      -4.984010       5.380117      -0.661393       0.103000                    
      -3.928852       3.230019      -0.544530      -0.200000                    
       1.271290      -1.260815      -3.031989      -0.200000                    
       0.107736      -2.367105      -3.852438      -0.006000                    
      -0.864365      -2.299347      -3.364213       0.103000                    
       0.009589      -2.080054      -4.899298       0.103000                    
       0.622747      -3.804974      -3.764629      -0.006000                    
       1.594844      -3.872726      -4.252861       0.103000                    
       0.720899      -4.092018      -2.717780       0.103000                    
      -0.540801      -4.911258      -4.585089      -0.200000                    
       5.560854       4.935195      -1.857672      -0.200000                    
       4.620948       6.439897      -1.536207      -0.006000                    
       3.555589       6.230460      -1.631594       0.103000                    
       4.833194       6.792514      -0.526999       0.103000                    
       5.020895       7.516625      -2.546669      -0.006000                    
       6.086253       7.726054      -2.451288       0.103000                    
       4.808648       7.163999      -3.555883       0.103000                    
       4.080985       9.021325      -2.225217      -0.200000                    
       1.615928      -6.904886       2.100607      -0.200000                    
       1.848756      -5.198732       2.635193      -0.006000                    
       2.914592      -4.983414       2.710034       0.103000                    
       1.391766      -4.525079       1.910434       0.103000                    
       1.191391      -4.998396       4.001966      -0.006000                    
       0.125558      -5.213721       3.927133       0.103000                    
       1.648381      -5.672050       4.726726       0.103000                    
       1.424218      -3.292243       4.536551      -0.200000                    
       1.034903       0.102747       3.273647      -0.200000                    
      -0.367698       0.533439       4.321547      -0.006000                    
      -0.536735       1.609328       4.278685       0.103000                    
      -1.257668       0.011332       3.970495       0.103000                    
      -0.071466       0.121439       5.764771      -0.006000                    
       0.097574      -0.954456       5.807640       0.103000                    
       0.818494       0.643546       6.115825       0.103000                    
      -1.474077       0.552130       6.812673      -0.200000                    
       6.494826      -6.085924      -0.987927      -0.200000                    
       6.378457      -4.320421      -1.334745      -0.006000                    
       7.174689      -3.793392      -0.809202       0.103000                    
       6.477945      -4.153230      -2.407169       0.103000                    
       5.021565      -3.796085      -0.861182      -0.006000                    
       4.225328      -4.323112      -1.386709       0.103000                    
       4.922067      -3.963277       0.211245       0.103000                    
       4.905186      -2.030584      -1.207998      -0.200000                    
       2.292849       2.087040      -6.458519      -0.200000                    
       2.844948       1.429700      -4.872956      -0.006000                    
       2.220744       1.832231      -4.075297       0.103000                    
       2.766233       0.342666      -4.882755       0.103000                    
       4.301053       1.832846      -4.632964      -0.006000                    
       4.925266       1.430316      -5.430627       0.103000                    
       4.379776       2.919880      -4.623168       0.103000                    
       4.853152       1.175506      -3.047402      -0.200000                    
       7.654433      -2.196998       2.084376      -0.200000                    
       6.560114      -0.782345       2.312596      -0.006000                    
       7.140913       0.075849       2.650341       0.103000                    
       6.073635      -0.542754       1.367130       0.103000                    
       5.498219      -1.122816       3.359905      -0.006000                    
       4.917420      -1.981009       3.022159       0.103000                    
       5.984698      -1.362406       4.305371       0.103000                    
       4.403895       0.291843       3.588117      -0.200000                    
      -1.440787       5.168827       3.214772      -0.200000                    
      -1.449769       6.003374       4.812985      -0.006000                    
      -2.472932       6.268682       5.078869       0.103000                    
      -1.037418       5.339093       5.572332       0.103000                    
      -0.599536       7.272486       4.730328      -0.006000                    
       0.423628       7.007177       4.464443       0.103000                    
      -1.011886       7.936767       3.970980       0.103000                    
      -0.608517       8.107033       6.328540      -0.200000                    
      -5.302763      -1.578090      -2.213328      -0.200000                    
      -4.820966      -0.359201      -3.451480      -0.006000                    
      -4.002441       0.247826      -3.064837       0.103000                    
      -4.497734      -0.870275      -4.358277       0.103000                    
      -6.015378       0.541194      -3.772414      -0.006000                    
      -6.833913      -0.065834      -4.159055       0.103000                    
      -6.338614       1.052274      -2.865626       0.103000                    
      -5.533591       1.760083      -5.010563      -0.200000                    
       8.928595       3.611753       1.278405      -0.200000                    
       8.859053       3.630684      -0.523187      -0.006000                    
       8.296681       4.502904      -0.856185       0.103000                    
       9.870973       3.675182      -0.925653       0.103000                    
       8.168623       2.359221      -1.020251      -0.006000                    
       8.731004       1.487001      -0.687257       0.103000                    
       7.156703       2.314723      -0.617785       0.103000                    
       8.099081       2.378151      -2.821843      -0.200000                    
       4.581576      -9.768958      -1.954739      -0.200000                    
       3.395508      -8.720142      -1.092154      -0.006000                    
       2.476557      -9.279120      -0.916074       0.103000                    
       3.816774      -8.403316      -0.138145       0.103000                    
       3.087217      -7.489271      -1.946751      -0.006000                    
       4.006171      -6.930299      -2.122824       0.103000                    
       2.665950      -7.806097      -2.900759       0.103000                    
       1.901151      -6.440461      -1.084158      -0.200000                    
      -3.046297      -6.424888       4.956618      -0.200000                    
      -4.696202      -5.986203       4.376761      -0.006000                    
      -5.374425      -6.823069       4.542902       0.103000                    
      -5.053957      -5.114127       4.923975       0.103000                    
      -4.642332      -5.663100       2.882406      -0.006000                    
      -3.964117      -4.826236       2.716269       0.103000                    
      -4.284582      -6.535183       2.335203       0.103000                    
      -6.292236      -5.224415       2.302549      -0.200000                    
       1.181606       7.698945      -3.912076      -0.200000                    
       2.178086       7.915518      -5.399000      -0.006000                    
       3.233897       7.818505      -5.146445       0.103000                    
       1.908118       7.154979      -6.131550       0.103000                    
       1.920595       9.303902      -5.987638      -0.006000                    
       0.864783       9.400906      -6.240196       0.103000                    
       2.190560      10.064445      -5.255094       0.103000                    
       2.917076       9.520473      -7.474560      -0.200000                    
       2.878146      -2.160836      -6.245520      -0.200000                    
       4.669618      -2.351341      -6.317227      -0.006000                    
       4.916339      -3.390623      -6.533905       0.103000                    
       5.072227      -1.710889      -7.101871       0.103000                    
       5.279014      -1.952951      -4.971792      -0.006000                    
       5.032295      -0.913661      -4.755109       0.103000                    
       4.876407      -2.593395      -4.187143       0.103000                    
       7.070488      -2.143449      -5.043494      -0.200000                    
      -6.433311      -3.160803      -5.542681      -0.200000                    
      -4.999830      -2.775522      -6.566204      -0.006000                    
      -5.187268      -3.097677      -7.590434       0.103000                    
      -4.820078      -1.700653      -6.550292       0.103000                    
      -3.771727      -3.505555      -6.019250      -0.006000                    
      -3.584290      -3.183408      -4.995026       0.103000                    
      -3.951480      -4.580432      -6.035168       0.103000                    
      -2.338246      -3.120273      -7.042774      -0.200000                    
      10.091497       6.624833       2.949008      -0.200000                    
       8.820494       6.883171       4.201474      -0.006000                    
       9.277720       6.873786       5.190804       0.103000                    
       8.335391       7.844761       4.034263       0.103000                    
       7.780214       5.765179       4.110489      -0.006000                    
       7.322987       5.774563       3.121159       0.103000                    
       8.265319       4.803574       4.277701       0.103000                    
       6.509214       6.023510       5.362962      -0.200000                    
      -3.761031       7.855805       1.254155      -0.200000                    
      -4.795174       8.888353       0.198081      -0.006000                    
      -4.174354       9.627839      -0.307586       0.103000                    
      -5.294545       8.264755      -0.543352       0.103000                    
      -5.843974       9.602461       1.052696      -0.006000                    
      -6.464807       8.862980       1.558359       0.103000                    
      -5.344604      10.226058       1.794129       0.103000                    
      -6.878126      10.635007      -0.003374      -0.200000                    
       6.420479      11.033031       4.916022      -0.200000                    
       6.052158      10.529814       3.224278      -0.006000                    
       5.899985      11.414893       2.606646       0.103000                    
       6.885048       9.948943       2.828239       0.103000                    
       4.783329       9.675248       3.211246      -0.006000                    
       4.935502       8.790170       3.828879       0.103000                    
       3.950438      10.256119       3.607285       0.103000                    
       4.415008       9.172032       1.519503      -0.200000                    
      -8.021029       4.073429      -2.986288      -0.200000                    
      -6.473818       4.856472      -3.480089      -0.006000                    
      -5.649450       4.420508      -2.915951       0.103000                    
      -6.309548       4.697068      -4.545723       0.103000                    
      -6.548408       6.357693      -3.195144      -0.006000                    
      -7.372787       6.793648      -3.759286       0.103000                    
      -6.712688       6.517087      -2.129513       0.103000                    
      -5.001207       7.140727      -3.688948      -0.200000                    
      -1.711445      12.988515       2.840891      -0.200000                    
      -0.216380      12.016839       2.573470      -0.006000                    
      -0.126792      11.771263       1.515366       0.103000                    
       0.653270      12.593805       2.887694       0.103000                    
      -0.293993      10.726204       3.391143      -0.006000                    
      -0.383580      10.971781       4.449248       0.103000                    
      -1.163642      10.149239       3.076920       0.103000                    
       1.201069       9.754536       3.123715      -0.200000                    
       2.720649      12.382345      -0.152447      -0.200000                    
       1.357643      12.365439      -1.332658      -0.006000                    
       0.416560      12.231479      -0.799373       0.103000                    
       1.336046      13.309664      -1.876673       0.103000                    
       1.552208      11.213078      -2.319882      -0.006000                    
       2.493291      11.347040      -2.853167       0.103000                    
       1.573807      10.268862      -1.775861       0.103000                    
       0.189212      11.196174      -3.500096      -0.200000                    
       8.119427      -5.761638       6.462258      -0.200000                    
       6.728481      -5.784775       5.315194      -0.006000                    
       6.491505      -6.815499       5.051872       0.103000                    
       5.861495      -5.321186       5.785688       0.103000                    
       7.097806      -5.007857       4.050117      -0.006000                    
       7.334782      -3.977134       4.313439       0.103000                    
       7.964795      -5.471452       3.579631       0.103000                    
       5.706862      -5.030986       2.903059      -0.200000                    
      -1.131082       7.010099      -6.566312      -0.200000                    
      -2.427846       7.735614      -5.545066      -0.006000                    
      -3.341032       7.833169      -6.132030       0.103000                    
      -2.615460       7.093085      -4.684907       0.103000                    
      -1.983099       9.117174      -5.061522      -0.006000                    
      -1.069914       9.019619      -4.474558       0.103000                    
      -1.795485       9.759702      -5.921681       0.103000                    
      -3.279863       9.842690      -4.040277      -0.200000                    
      11.076659       6.497166      -2.556469      -0.200000                    
      10.193898       7.042539      -1.081936      -0.006000                    
      10.066477       6.200220      -0.402087       0.103000                    
      10.764965       7.827118      -0.585663       0.103000                    
       8.821145       7.586813      -1.481535      -0.006000                    
       8.948555       8.429132      -2.161381       0.103000                    
       8.250078       6.802234      -1.977809       0.103000                    
       7.938374       8.132185      -0.006999      -0.200000                    
       2.414622       0.363949       8.215367      -0.200000                    
       3.072584      -1.286453       7.908463      -0.006000                    
       3.304759      -1.767753       8.858413       0.103000                    
       2.331759      -1.879254       7.372050       0.103000                    
       4.345719      -1.179513       7.067034      -0.006000                    
       4.113554      -0.698204       6.117088       0.103000                    
       5.086547      -0.586718       7.603455       0.103000                    
       5.003683      -2.829906       6.760136      -0.200000                    
       0.539755      -8.117990       5.270380      -0.200000                    
      -0.466252      -9.366746       4.446088      -0.006000                    
      -0.084532     -10.358655       4.687634       0.103000                    
      -1.499117      -9.282510       4.783765       0.103000                    
      -0.406039      -9.152435       2.932543      -0.006000                    
      -0.787760      -8.160526       2.690996       0.103000                    
       0.626825      -9.236671       2.594866       0.103000                    
      -1.412043     -10.401196       2.108258      -0.200000                    
      -4.685688      -2.910265       7.676699      -0.200000                    
      -4.752698      -1.280021       6.909394      -0.006000                    
      -4.667030      -0.512432       7.678437       0.103000                    
      -3.931110      -1.177783       6.200539       0.103000                    
      -6.083864      -1.117258       6.173265      -0.006000                    
      -6.169532      -1.884847       5.404222       0.103000                    
      -6.905462      -1.219506       6.882117       0.103000                    
      -6.150884       0.512985       5.405963      -0.200000                    
       2.434026       4.117402       9.564129      -0.200000                    
       2.250024       5.456308       8.370600      -0.006000                    
       1.263641       5.400093       7.910363       0.103000                    
       2.359987       6.414142       8.878940       0.103000                    
       3.324698       5.326988       7.289525      -0.006000                    
       4.311084       5.383197       7.749769       0.103000                    
       3.214726       4.369153       6.781188       0.103000                    
       3.140700       6.665889       6.096003      -0.200000                    
      -6.807398       7.697365       6.224719      -0.200000                    
      -5.566021       6.514123       5.668115      -0.006000                    
      -5.372375       6.662943       4.605907       0.103000                    
      -4.644092       6.663002       6.230093       0.103000                    
      -6.078631       5.091187       5.897977      -0.006000                    
      -6.272277       4.942369       6.960186       0.103000                    
      -7.000559       4.942310       5.335999       0.103000                    
      -4.837250       3.907941       5.341381      -0.200000                    
      -8.512197      -4.264287      -0.655319      -0.200000                    
      -8.697684      -3.764459      -2.377721      -0.006000                    
      -7.713106      -3.644853      -2.829632       0.103000                    
      -9.256178      -4.527570      -2.919619       0.103000                    
      -9.453634      -2.436144      -2.444633      -0.006000                    
     -10.438210      -2.555757      -1.992715       0.103000                    
      -8.895143      -1.673034      -1.902735       0.103000                    
      -9.639118      -1.936330      -4.167034      -0.200000                    
       3.770651       4.934262     -10.176483      -0.200000                    
       4.554336       5.780608      -8.790693      -0.006000                    
       5.605571       5.955692      -9.019064       0.103000                    
       4.055964       6.734489      -8.618390       0.103000                    
       4.443347       4.913773      -7.535055      -0.006000                    
       3.392112       4.738688      -7.306684       0.103000                    
       4.941719       3.959892      -7.707358       0.103000                    
       5.227033       5.760119      -6.149265      -0.200000                    
      -6.394395      -6.619593      -3.598890      -0.200000                    
      -4.987698      -7.359130      -4.450450      -0.006000                    
      -4.084441      -6.795343      -4.217770       0.103000                    
      -4.866282      -8.391604      -4.123037       0.103000                    
      -5.232244      -7.328960      -5.960312      -0.006000                    
      -6.135500      -7.892746      -6.192993       0.103000                    
      -5.353650      -6.296484      -6.287729       0.103000                    
      -3.825547      -8.068498      -6.811873      -0.200000                    
      -9.962320       3.282616       0.934121      -0.200000                    
     -10.827365       2.710637      -0.540828      -0.006000                    
     -11.769662       2.245180      -0.252117       0.103000                    
     -11.026359       3.557818      -1.197088       0.103000                    
      -9.959026       1.688795      -1.277182      -0.006000                    
      -9.016720       2.154253      -1.565898       0.103000                    
      -9.760031       0.841613      -0.620923       0.103000                    
     -10.824072       1.116815      -2.752132      -0.200000                    
     -10.950712      -4.069662       3.557452      -0.200000                    
     -10.035832      -2.802095       2.658979      -0.006000                    
      -8.966076      -2.961529       2.793699       0.103000                    
     -10.281241      -2.859399       1.598612       0.103000                    
     -10.416680      -1.421190       3.196083      -0.006000                    
     -11.486436      -1.261756       3.061363       0.103000                    
     -10.171259      -1.363877       4.256453       0.103000                    
      -9.501800      -0.153623       2.297609      -0.200000                    
      11.305235       3.364229       5.625695      -0.200000                    
      11.807820       1.739127       5.027874      -0.006000                    
      12.889709       1.718296       4.897531       0.103000                    
      11.514071       0.978744       5.751374       0.103000                    
      11.127659       1.456247       3.687074      -0.006000                    
      10.045764       1.477084       3.817409       0.103000                    
      11.421403       2.216628       2.963560       0.103000                    
      11.630242      -0.168863       3.089247      -0.200000                    
      13.099772      -4.672215      -1.356938      -0.200000                    
      11.744229      -3.514431      -1.627074      -0.006000                    
      11.673120      -3.279248      -2.688943       0.103000                    
      10.809869      -3.963741      -1.290841       0.103000                    
      12.005222      -2.230459      -0.837336      -0.006000                    
      12.076327      -2.465637       0.224526       0.103000                    
      12.939581      -1.781150      -1.173568       0.103000                    
      10.649680      -1.072667      -1.107466      -0.200000                    
      -3.025934       3.698976      -7.656561      -0.200000                    
      -4.740192       3.840549      -8.197124      -0.006000                    
      -5.376308       3.235846      -7.550889       0.103000                    
      -5.053519       4.883080      -8.143148       0.103000                    
      -4.862546       3.345868      -9.639558      -0.006000                    
      -4.226430       3.950570     -10.285792       0.103000                    
      -4.549216       2.303331      -9.693524       0.103000                    
      -6.576800       3.487435     -10.180113      -0.200000                    
       1.330767      -0.372808      -9.027087      -0.200000                    