%nprocshared=4                                                                       
%mem=8GB                                                                             
#P pop=chelpg cam-b3lyp/gen scf=qc int=ultrafine charge td(nstates=10)               
                                                                                     
pNA CAM-B3LYP def2-TZVPD Single point - solvent def2-SV(P)                           
                                                                                     
0 1                                                                                  
 C       1.389235       0.000000      -0.000000                                 
 C       0.000000       0.000000      -0.000000                                 
 C      -0.711164       1.193419       0.000000                                 
 C      -0.034074       2.386367       0.000141                                 
 C       1.370482       2.412065       0.000933                                 
 C       2.067428       1.192342       0.000144                                 
 H       1.924301      -0.937208       0.000967                                 
 H      -1.790186       1.173300       0.000962                                 
 H      -0.583208       3.318526      -0.000772                                 
 H       3.149318       1.197759      -0.000767                                 
 N      -0.711160      -1.251627       0.001756                                 
 O      -1.932441      -1.229701       0.002542                                 
 O      -0.067142      -2.289538       0.002483                                 
 N       2.040236       3.590780      -0.024683                                 
 H       1.546357       4.451509       0.132529                                 
 H       3.032458       3.607145       0.132525                                 
Cl       1.626961      -5.009499       3.025524                                 
 C       2.081765      -3.349420       3.562372                                 
 H       1.185333      -2.804630       3.858218                                 
 H       2.763464      -3.415485       4.410226                                 
 C       2.769605      -2.611989       2.411971                                 
 H       3.666051      -3.156784       2.116129                                 
 H       2.087910      -2.545932       1.564122                                 
Cl       3.224410      -0.951911       2.948820                                 
Cl       3.266869       5.406528       2.556470                                 
 C       2.737711       6.883838       1.668573                                 
 H       3.589206       7.550302       1.531691                                 
 H       2.338413       6.599482       0.695102                                 
 C       1.653205       7.601814       2.474005                                 
 H       0.801706       6.935359       2.610883                                 
 H       2.052500       7.886178       3.447472                                 
Cl       1.124044       9.079132       1.586104                                 
Cl       0.160820       6.243688      -0.902372                                 
 C      -1.365783       6.323819      -1.858420                                 
 H      -1.126870       6.411438      -2.918234                                 
 H      -1.947821       5.417709      -1.690635                                 
 C      -2.180286       7.541407      -1.417502                                 
 H      -2.419200       7.453789      -0.357689                                 
 H      -1.598257       8.447510      -1.585296                                 
Cl      -3.706898       7.621531      -2.373559                                 
Cl      -2.255611      -5.793045       0.684349                                 
 C      -2.057061      -4.468318       1.891266                                 
 H      -1.132634      -3.927584       1.688829                                 
 H      -2.901794      -3.783151       1.821361                                 
 C      -2.000364      -5.065088       3.298764                                 
 H      -2.924799      -5.605825       3.501202                                 
 H      -1.155626      -5.750263       3.368674                                 
Cl      -1.801822      -3.740365       4.505683                                 
Cl      -4.738608       0.549242       2.270107                                 
 C      -5.099624      -1.210066       2.429684                                 
 H      -4.254220      -1.713647       2.898356                                 
 H      -5.989305      -1.344323       3.044780                                 
 C      -5.343992      -1.808303       1.043037                                 
 H      -6.189395      -1.304721       0.574365                                 
 H      -4.454320      -1.674049       0.427942                                 
Cl      -5.705017      -3.567614       1.202615                                 
                                                                                
       3.330376      -4.520743      -0.733684      -0.200000                    
       2.851141      -4.575688      -2.470976      -0.006000                    
       3.684835      -4.242320      -3.088835       0.103000                    
       2.583228      -5.596796      -2.742109       0.103000                    
       1.649512      -3.656448      -2.697796      -0.006000                    
       0.815819      -3.989817      -2.079937       0.103000                    
       1.917422      -2.635332      -2.426666       0.103000                    
       1.170274      -3.711385      -4.435092      -0.200000                    
       1.596396       2.429033       4.459198      -0.200000                    
       0.301535       1.495807       3.620576      -0.006000                    
      -0.613080       2.087943       3.592184       0.103000                    
       0.618671       1.267676       2.603071       0.103000                    
       0.041014       0.192042       4.377334      -0.006000                    
       0.955629      -0.400094       4.405726       0.103000                    
      -0.276128       0.420162       5.394846       0.103000                    
      -1.253847      -0.741184       3.538712      -0.200000                    
       5.135350       3.469175      -6.458395      -0.200000                    
       5.202232       3.822670      -4.691596      -0.006000                    
       6.234451       4.012562      -4.397626       0.103000                    
       4.594633       4.700811      -4.473258       0.103000                    
       4.662679       2.622903      -3.910721      -0.006000                    
       3.630468       2.433018      -4.204682       0.103000                    
       5.270275       1.744770      -4.129062       0.103000                    
       4.729566       2.976409      -2.143927      -0.200000                    
       5.320744       2.533509       1.581126      -0.200000                    
       5.541176       2.166946       3.332676      -0.006000                    
       5.856952       3.069321       3.856055       0.103000                    
       4.598793       1.814500       3.751798       0.103000                    
       6.608479       1.083234       3.496478      -0.006000                    
       6.292707       0.180851       2.973104       0.103000                    
       7.550867       1.435671       3.077360       0.103000                    
       6.828912       0.716671       5.248028      -0.200000                    
       5.546777      -1.585145      -1.704780      -0.200000                    
       6.436902      -0.856523      -0.316354      -0.006000                    
       5.736560      -0.318708       0.322546       0.103000                    
       6.921772      -1.645182       0.258837       0.103000                    
       7.495485       0.114581      -0.842420      -0.006000                    
       8.195829      -0.423242      -1.481315       0.103000                    
       7.010615       0.903246      -1.417602       0.103000                    
       8.385611       0.843204       0.546005      -0.200000                    
      -4.190676       3.706877       0.198228      -0.200000                    
      -5.824245       4.394043       0.530190      -0.006000                    
      -6.345627       4.563690      -0.411799       0.103000                    
      -6.395402       3.695111       1.141116       0.103000                    
      -5.677093       5.721024       1.277106      -0.006000                    
      -5.155710       5.551376       2.219095       0.103000                    
      -5.105934       6.419955       0.666179       0.103000                    
      -7.310661       6.408189       1.609068      -0.200000                    
      -0.335660      -0.723870      -7.294176      -0.200000                    
       0.339643       0.464677      -6.118517      -0.006000                    
       1.372977       0.689804      -6.382067       0.103000                    
      -0.250746       1.380415      -6.147573       0.103000                    
       0.290997      -0.128247      -4.709094      -0.006000                    
      -0.742328      -0.353371      -4.445546       0.103000                    
       0.881383      -1.043982      -4.680052       0.103000                    
       0.966310       1.060302      -3.533437      -0.200000                    
      -3.143034       2.967854      -3.699833      -0.200000                    
      -3.939421       1.398313      -4.091256      -0.006000                    
      -4.261244       1.403638      -5.132567       0.103000                    
      -3.233546       0.583041      -3.933068       0.103000                    
      -5.155113       1.202954      -3.183376      -0.006000                    
      -4.833291       1.197629      -2.142065       0.103000                    
      -5.860979       2.018224      -3.341574       0.103000                    
      -5.951499      -0.366587      -3.574799      -0.200000                    
      -2.411894      -2.188296      -3.566458      -0.200000                    
      -3.435003      -3.613219      -3.149683      -0.006000                    
      -3.102335      -4.034706      -2.201201       0.103000                    
      -4.475677      -3.300884      -3.063675       0.103000                    
      -3.309487      -4.669996      -4.248677      -0.006000                    
      -3.642155      -4.248508      -5.197159       0.103000                    
      -2.268812      -4.982327      -4.334676       0.103000                    
      -4.332595      -6.094919      -3.831902      -0.200000                    
       4.541841      10.446795      -0.154736      -0.200000                    
       4.197729       9.741842      -1.778154      -0.006000                    
       3.710212      10.489724      -2.403372       0.103000                    
       5.132234       9.430897      -2.245023       0.103000                    
       3.277710       8.529457      -1.623019      -0.006000                    
       3.765227       7.781575      -0.997801       0.103000                    
       2.343205       8.840403      -1.156150       0.103000                    
       2.933607       7.824506      -3.246438      -0.200000                    
       0.402231       5.355685       6.777850      -0.200000                    
      -0.215238       5.148932       5.096511      -0.006000                    
       0.614353       5.220170       4.393209       0.103000                    
      -0.689982       4.172470       5.001051       0.103000                    
      -1.237975       6.244705       4.790543      -0.006000                    
      -2.067575       6.173458       5.493838       0.103000                    
      -0.763231       7.221166       4.886003       0.103000                    
      -1.855445       6.037951       3.109204      -0.200000                    
       6.074812       6.361296      -1.367976      -0.200000                    
       7.677185       5.535023      -1.340912      -0.006000                    
       7.574880       4.529850      -1.749732       0.103000                    
       8.388467       6.101333      -1.942013       0.103000                    
       8.182653       5.449710       0.100490      -0.006000                    
       8.284960       6.454884       0.509310       0.103000                    
       7.471373       4.883400       0.701591       0.103000                    
       9.785036       4.623441       0.127553      -0.200000                    
       3.850434      -8.162087      -0.955793      -0.200000                    
       2.355211      -8.824094      -0.196164      -0.006000                    
       1.602148      -8.995790      -0.965150       0.103000                    
       2.586801      -9.765196       0.302492       0.103000                    
       1.817835      -7.823367       0.828624      -0.006000                    
       2.570899      -7.651672       1.597610       0.103000                    
       1.586249      -6.882273       0.329972       0.103000                    
       0.322613      -8.485373       1.588253      -0.200000                    
      -8.670882      -0.048109       1.134264      -0.200000                    
      -8.319706       0.557496      -0.527306      -0.006000                    
      -7.245849       0.705216      -0.641038       0.103000                    
      -8.666172      -0.170756      -1.260495       0.103000                    
      -9.043097       1.887130      -0.748912      -0.006000                    
     -10.116953       1.739410      -0.635180       0.103000                    
      -8.696630       2.615382      -0.015723       0.103000                    
      -8.691916       2.492727      -2.410478      -0.200000                    
      -3.369108       1.873258       5.244696      -0.200000                    
      -4.846889       2.903638       5.317759      -0.006000                    
      -5.423107       2.778440       4.401108       0.103000                    
      -5.454736       2.607455       6.172577       0.103000                    
      -4.438891       4.370531       5.466620      -0.006000                    
      -3.862673       4.495729       6.383272       0.103000                    
      -3.831053       4.666710       4.611803       0.103000                    
      -5.916678       5.400900       5.539689      -0.200000                    
       9.222630      10.336250       2.913754      -0.200000                    
       8.728204       8.602466       2.893188      -0.006000                    
       9.038460       8.147057       1.952815       0.103000                    
       9.201684       8.079504       3.724028       0.103000                    
       7.207664       8.504176       3.029572      -0.006000                    
       6.897421       8.959581       3.969948       0.103000                    
       6.734194       9.027143       2.198730       0.103000                    
       6.713252       6.770387       3.009008      -0.200000                    
       3.902492       7.873093       5.082728      -0.200000                    
       4.164820       6.919436       6.590251      -0.006000                    
       4.909957       7.417468       7.210495       0.103000                    
       3.226755       6.842805       7.139873       0.103000                    
       4.658602       5.517672       6.227472      -0.006000                    
       3.913461       5.019643       5.607214       0.103000                    
       5.596667       5.594302       5.677850       0.103000                    
       4.920926       4.564018       7.734982      -0.200000                    
       6.694113      -2.491554       2.940605      -0.200000                    
       7.206812      -2.636187       4.663124      -0.006000                    
       7.856444      -3.503843       4.777484       0.103000                    
       7.746444      -1.736521       4.958616       0.103000                    
       5.971869      -2.803964       5.550369      -0.006000                    
       5.322233      -1.936299       5.436003       0.103000                    
       5.432236      -3.703629       5.254876       0.103000                    
       6.484564      -2.948588       7.272883      -0.200000                    
       0.839005       3.874003      -5.893924      -0.200000                    
       0.938310       5.645276      -6.215796      -0.006000                    
       0.358168       5.886025      -7.106529       0.103000                    
       0.538384       6.192870      -5.362471       0.103000                    
       2.399112       6.042334      -6.436598      -0.006000                    
       2.979260       5.801596      -5.545871       0.103000                    
       2.799045       5.494751      -7.289929       0.103000                    
       2.498424       7.813620      -6.758476      -0.200000                    
       5.354617      -5.310624       1.967547      -0.200000                    
       6.996826      -5.771186       1.382747      -0.006000                    
       7.382450      -4.989145       0.728801       0.103000                    
       7.664904      -5.894623       2.235034       0.103000                    
       6.911551      -7.087291       0.607522      -0.006000                    
       6.525932      -7.869320       1.261462       0.103000                    
       6.243477      -6.963841      -0.244771       0.103000                    
       8.553755      -7.547843       0.022717      -0.200000                    
      -0.049807      -7.685066      -2.886929      -0.200000                    
      -1.652251      -8.363955      -2.415573      -0.006000                    
      -1.524312      -9.050684      -1.578940       0.103000                    
      -2.318458      -7.552964      -2.121650       0.103000                    
      -2.257115      -9.115025      -3.603192      -0.006000                    
      -2.385064      -8.428298      -4.439823       0.103000                    
      -1.590908      -9.926019      -3.897125       0.103000                    
      -3.859558      -9.793917      -3.131845      -0.200000                    
      -2.701108       6.094574      -5.037214      -0.200000                    
      -4.216998       6.445205      -5.948277      -0.006000                    
      -5.069860       6.383756      -5.272405       0.103000                    
      -4.161893       7.447062      -6.373924       0.103000                    
      -4.383927       5.422175      -7.073400      -0.006000                    
      -3.531065       5.483624      -7.749271       0.103000                    
      -4.439032       4.420319      -6.647752       0.103000                    
      -5.899817       5.772806      -7.984462      -0.200000                    
       4.156322      -0.560771      -5.955028      -0.200000                    
       4.536442       0.021602      -7.618505      -0.006000                    
       3.619769       0.353384      -8.105887       0.103000                    
       5.239007       0.852884      -7.560994       0.103000                    
       5.160010      -1.117322      -8.427446      -0.006000                    
       6.076694      -1.449104      -7.940051       0.103000                    
       4.457448      -1.948608      -8.484944       0.103000                    
       5.540129      -0.534949     -10.090923      -0.200000                    
      -7.575189      -3.664999      -1.721251      -0.200000                    
      -8.030419      -5.119447      -0.757772      -0.006000                    
      -7.967008      -4.886011       0.304970       0.103000                    
      -9.050077      -5.414731      -1.004939       0.103000                    
      -7.074033      -6.267758      -1.085053      -0.006000                    
      -7.137437      -6.501183      -2.147801       0.103000                    
      -6.054379      -5.972466      -0.837890       0.103000                    
      -7.529267      -7.722198      -0.121579      -0.200000                    
      -4.615238      -3.623692      -7.679145      -0.200000                    
      -4.516518      -1.930276      -8.290345      -0.006000                    
      -3.583813      -1.795131      -8.837823       0.103000                    
      -5.358980      -1.733298      -8.953206       0.103000                    
      -4.559438      -0.958620      -7.109491      -0.006000                    
      -5.492142      -1.093764      -6.562014       0.103000                    
      -3.716976      -1.155598      -6.446630       0.103000                    
      -4.460718       0.734796      -7.720692      -0.200000                    
      -6.410169       4.961833      -3.076265      -0.200000                    
      -7.971158       5.845344      -2.892885      -0.006000                    
      -8.795459       5.132292      -2.899405       0.103000                    
      -7.970882       6.392106      -1.950051       0.103000                    
      -8.139503       6.829174      -4.052236      -0.006000                    
      -7.315200       7.542227      -4.045716       0.103000                    
      -8.139777       6.282413      -4.995070       0.103000                    
      -9.700490       7.712680      -3.868865      -0.200000                    
       2.305557       2.435328       9.639713      -0.200000                    
       3.116147       1.397603       8.408041      -0.006000                    
       3.459777       2.017267       7.579859       0.103000                    
       3.968534       0.892561       8.862290       0.103000                    
       2.124785       0.355323       7.887258      -0.006000                    
       1.781147      -0.264350       8.715432       0.103000                    
       1.272393       0.860353       7.433014       0.103000                    
       2.935371      -0.682418       6.655582      -0.200000                    
      -0.383234       9.113955      -4.593296      -0.200000                    
      -0.605110      10.862679      -4.972176      -0.006000                    
      -1.109938      10.965399      -5.932652       0.103000                    
      -1.207336      11.329929      -4.193104       0.103000                    
       0.761353      11.547304      -5.039130      -0.006000                    
       1.266181      11.444584      -4.078654       0.103000                    
       1.363579      11.080058      -5.818193       0.103000                    
       0.539477      13.296028      -5.418010      -0.200000                    
      -0.434166      -1.287035       7.593180      -0.200000                    
       0.040398      -3.016405       7.780272      -0.006000                    
       0.427365      -3.391742       6.833026       0.103000                    
       0.810600      -3.101175       8.546812       0.103000                    
      -1.181770      -3.838765       8.192995      -0.006000                    
      -1.568727      -3.463421       9.140248       0.103000                    
      -1.951962      -3.753993       7.426454       0.103000                    
      -0.707197      -5.568132       8.380086      -0.200000                    
      11.694189       2.000902      -7.070102      -0.200000                    
      10.215385       1.733588      -6.073769      -0.006000                    
       9.445195       2.446592      -6.367660       0.103000                    
       9.850072       0.718709      -6.230311       0.103000                    
      10.554351       1.930556      -4.595024      -0.006000                    
      11.324539       1.217556      -4.301147       0.103000                    
      10.919664       2.945430      -4.438491       0.103000                    
       9.075556       1.663246      -3.598692      -0.200000                    
       6.289001      -5.354529      -3.450168      -0.200000                    
       7.373670      -6.651163      -4.077079      -0.006000                    
       7.318719      -6.676533      -5.165322       0.103000                    
       8.399280      -6.447489      -3.769505       0.103000                    
       6.931603      -8.002739      -3.513065      -0.006000                    
       6.986553      -7.977369      -2.424822       0.103000                    
       5.905993      -8.206416      -3.820649       0.103000                    
       8.016272      -9.299373      -4.139977      -0.200000                    
      -2.144338     -11.154376       1.720847      -0.200000                    
      -3.387582      -9.869209       1.489318      -0.006000                    
      -3.154746      -9.295471       0.592343       0.103000                    
      -4.370021     -10.328848       1.382066       0.103000                    
      -3.390594      -8.938056       2.703111      -0.006000                    
      -3.623431      -9.511794       3.600085       0.103000                    
      -2.408164      -8.478422       2.810365       0.103000                    
      -4.633839      -7.652890       2.471583      -0.200000                    
      -9.702635      -1.748050       3.909374      -0.200000                    
      -8.588354      -3.164670       3.959057      -0.006000                    
      -8.163008      -3.327584       2.968868       0.103000                    
      -7.786705      -2.971826       4.671868       0.103000                    
      -9.365372      -4.409733       4.390813      -0.006000                    
      -9.790715      -4.246828       5.381006       0.103000                    
     -10.167022      -4.602572       3.678011       0.103000                    
      -8.251092      -5.826353       4.440496      -0.200000                    
      -0.746758      -6.161720      -6.105838      -0.200000                    
      -1.154129      -5.557688      -7.755133      -0.006000                    
      -0.445341      -5.964121      -8.476530       0.103000                    
      -2.163222      -5.873849      -8.019150       0.103000                    
      -1.078257      -4.029825      -7.771745      -0.006000                    
      -1.787040      -3.623400      -7.050343       0.103000                    
      -0.069164      -3.713664      -7.507728       0.103000                    
      -1.485624      -3.425801      -9.421035      -0.200000                    
      -7.944183      -1.239269       7.087205      -0.200000                    
      -6.552633      -1.348883       8.228494      -0.006000                    
      -6.789235      -0.805963       9.143485       0.103000                    
      -6.358841      -2.394794       8.466125       0.103000                    
      -5.310818      -0.735514       7.578865      -0.006000                    
      -5.074221      -1.278426       6.663868       0.103000                    
      -5.504611       0.310396       7.341232       0.103000                    
      -3.919269      -0.845128       8.720153      -0.200000                    
      -5.178668      -4.505012       5.780484      -0.200000                    
      -5.128738      -6.275538       6.117503      -0.006000                    
      -6.121067      -6.617956       6.410697       0.103000                    
      -4.810783      -6.807476       5.220923       0.103000                    
      -4.139199      -6.551110       7.251176      -0.006000                    
      -3.146870      -6.208693       6.957983       0.103000                    
      -4.457154      -6.019169       8.147766       0.103000                    
      -4.089270      -8.321637       7.588196      -0.200000                    
       7.319359      -2.366933      -5.123874      -0.200000                    
       9.065278      -2.214159      -4.700360      -0.006000                    
       9.471591      -1.310031      -5.153599       0.103000                    
       9.173076      -2.157919      -3.617230       0.103000                    
       9.825918      -3.433253      -5.225365      -0.006000                    
       9.419605      -4.337380      -4.772126       0.103000                    
       9.718112      -3.489496      -6.308494       0.103000                    
      11.571828      -3.280482      -4.801850      -0.200000                    
      12.696953      -0.052229       4.351243      -0.200000                    
      11.907322       1.506506       3.906523      -0.006000                    
      12.385091       2.323377       4.447244       0.103000                    
      12.008338       1.672256       2.834021       0.103000                    
      10.423764       1.450124       4.275737      -0.006000                    
       9.945997       0.633248       3.735007       0.103000                    
      10.322754       1.284360       5.348235       0.103000                    
       9.634135       3.008854       3.831008      -0.200000                    
       5.807683       8.773851      -9.461556      -0.200000                    