%nprocshared=4                                                                       
%mem=8GB                                                                             
#P pop=chelpg cam-b3lyp/gen scf=qc int=ultrafine charge td(nstates=10)               
                                                                                     
pNA CAM-B3LYP def2-TZVPD Single point - solvent def2-SV(P)                           
                                                                                     
0 1                                                                                  
 C       1.389235       0.000000      -0.000000                                 
 C       0.000000       0.000000      -0.000000                                 
 C      -0.711164       1.193419       0.000000                                 
 C      -0.034074       2.386367       0.000141                                 
 C       1.370482       2.412065       0.000933                                 
 C       2.067428       1.192342       0.000144                                 
 H       1.924301      -0.937208       0.000967                                 
 H      -1.790186       1.173300       0.000962                                 
 H      -0.583208       3.318526      -0.000772                                 
 H       3.149318       1.197759      -0.000767                                 
 N      -0.711160      -1.251627       0.001756                                 
 O      -1.932441      -1.229701       0.002542                                 
 O      -0.067142      -2.289538       0.002483                                 
 N       2.040236       3.590780      -0.024683                                 
 H       1.546357       4.451509       0.132529                                 
 H       3.032458       3.607145       0.132525                                 
Cl       4.970273       3.523983       0.528332                                 
 C       5.705857       5.006859      -0.186509                                 
 H       6.784765       4.987728      -0.033038                                 
 H       5.491113       5.040608      -1.254549                                 
 C       5.116837       6.245641       0.490901                                 
 H       4.037930       6.264775       0.337420                                 
 H       5.331581       6.211893       1.558941                                 
Cl       5.852420       7.728518      -0.223939                                 
Cl      -3.252563       8.313888      -0.489506                                 
 C      -1.786463       7.273496      -0.627345                                 
 H      -2.085342       6.255040      -0.875049                                 
 H      -1.136906       7.662612      -1.411325                                 
 C      -1.033867       7.273848       0.704559                                 
 H      -0.734987       8.292304       0.952263                                 
 H      -1.683423       6.884722       1.488537                                 
Cl       0.432233       6.233457       0.566720                                 
Cl       0.061619      -3.986277       3.900182                                 
 C      -1.405473      -3.747472       2.879646                                 
 H      -1.106467      -3.599885       1.841969                                 
 H      -2.045735      -4.626544       2.951985                                 
 C      -2.172143      -2.517272       3.368726                                 
 H      -2.471149      -2.664859       4.406402                                 
 H      -1.531881      -1.638200       3.296386                                 
Cl      -3.639236      -2.278469       2.348200                                 
Cl       8.022715       0.227833       1.066535                                 
 C       6.986597       0.542498       2.508177                                 
 H       7.400748       0.025143       3.373472                                 
 H       6.954636       1.613828       2.706079                                 
 C       5.569869       0.031679       2.239217                                 
 H       5.155708       0.549035       1.373921                                 
 H       5.601830      -1.039650       2.041315                                 
Cl       4.533741       0.346345       3.680858                                 
Cl       0.280546       3.036327      -4.757204                                 
 C      -0.967111       3.686026      -3.629293                                 
 H      -0.478424       4.227662      -2.819514                                 
 H      -1.629944       4.361279      -4.170250                                 
 C      -1.782101       2.528696      -3.048985                                 
 H      -2.270796       1.987072      -3.858773                                 
 H      -1.119267       1.853453      -2.508027                                 
Cl      -3.029758       3.178405      -1.921072                                 
                                                                                
       4.682413      -4.447882      -2.389486      -0.200000                    
       4.318254      -2.736932      -1.952522      -0.006000                    
       3.901483      -2.221522      -2.817729       0.103000                    
       3.597765      -2.715938      -1.134958       0.103000                    
       5.606268      -2.037295      -1.514495      -0.006000                    
       6.023049      -2.552695      -0.649286       0.103000                    
       6.326767      -2.058279      -2.332057       0.103000                    
       5.242110      -0.326344      -1.077532      -0.200000                    
       3.280129      -2.879980       2.057901      -0.200000                    
       3.135300      -4.620602       1.610414      -0.006000                    
       4.037570      -4.937918       1.087774       0.103000                    
       3.008475      -5.218635       2.512754       0.103000                    
       1.923215      -4.813179       0.697122      -0.006000                    
       1.020946      -4.495853       1.219764       0.103000                    
       2.050040      -4.215146      -0.205218       0.103000                    
       1.778387      -6.553789       0.249627      -0.200000                    
      -3.146196       2.507898       2.650111      -0.200000                    
      -4.900281       2.217671       2.350344      -0.006000                    
      -5.462749       2.416110       3.262591       0.103000                    
      -5.248063       2.879802       1.557518       0.103000                    
      -5.111495       0.762534       1.928033      -0.006000                    
      -4.549028       0.564094       1.015787       0.103000                    
      -4.763714       0.100403       2.720860       0.103000                    
      -6.865580       0.472308       1.628257      -0.200000                    
       1.272162       4.532056       3.342991      -0.200000                    
       1.836236       2.912261       3.898911      -0.006000                    
       2.572925       2.522952       3.196280       0.103000                    
       2.288558       3.003956       4.886310       0.103000                    
       0.645329       1.954701       3.971068      -0.006000                    
      -0.091351       2.344020       4.673702       0.103000                    
       0.193008       1.863008       2.983659       0.103000                    
       1.209402       0.334906       4.526988      -0.200000                    
      -4.413325      -5.269838       1.279934      -0.200000                    
      -3.578989      -6.024310      -0.129152      -0.006000                    
      -3.340225      -7.062177       0.102713       0.103000                    
      -4.232232      -5.987549      -1.000858       0.103000                    
      -2.288299      -5.259030      -0.427192      -0.006000                    
      -2.527062      -4.221170      -0.659069       0.103000                    
      -1.635055      -5.295798       0.444503       0.103000                    
      -1.453963      -6.013502      -1.836277      -0.200000                    
      -4.276764      -4.665426      -3.515372      -0.200000                    
      -4.793904      -3.064363      -2.867170      -0.006000                    
      -5.777122      -2.811845      -3.263992       0.103000                    
      -4.841905      -3.110854      -1.779285       0.103000                    
      -3.784780      -1.994068      -3.287274      -0.006000                    
      -2.801561      -2.246587      -2.890452       0.103000                    
      -3.736789      -1.947576      -4.375159       0.103000                    
      -4.301919      -0.393003      -2.639081      -0.200000                    
       0.542231      -4.429269      -6.015543      -0.200000                    
       0.865142      -5.183041      -4.409793      -0.006000                    
       1.117824      -4.406572      -3.687879       0.103000                    
      -0.023574      -5.716898      -4.073424       0.103000                    
       2.032679      -6.163955      -4.532472      -0.006000                    
       1.779997      -6.940433      -5.254388       0.103000                    
       2.921394      -5.630099      -4.868832       0.103000                    
       2.355589      -6.917728      -2.926712      -0.200000                    
       4.147928       7.077736      -6.930104      -0.200000                    
       3.113991       7.651543      -5.568965      -0.006000                    
       3.740827       8.111348      -4.805043       0.103000                    
       2.397355       8.383932      -5.940466       0.103000                    
       2.362053       6.464437      -4.964232      -0.006000                    
       1.735207       6.004633      -5.728156       0.103000                    
       3.078680       5.732052      -4.592742       0.103000                    
       1.328117       7.038248      -3.603104      -0.200000                    
      -2.661256       5.874563       5.871181      -0.200000                    
      -4.217783       5.454214       5.064001      -0.006000                    
      -4.387769       4.380242       5.138925       0.103000                    
      -5.035025       5.986473       5.550611       0.103000                    
      -4.153095       5.858112       3.589860      -0.006000                    
      -3.983110       6.932094       3.514938       0.103000                    
      -3.335854       5.325862       3.103252       0.103000                    
      -5.709623       5.437772       2.782682      -0.200000                    
       4.529889       3.359493      -4.222696      -0.200000                    
       4.700929       1.995477      -5.389349      -0.006000                    
       3.848387       1.323653      -5.290730       0.103000                    
       4.738496       2.388492      -6.405258       0.103000                    
       5.990829       1.228658      -5.091794      -0.006000                    
       6.843369       1.900481      -5.190403       0.103000                    
       5.953260       0.835632      -4.075878       0.103000                    
       6.161867      -0.135360      -6.258438      -0.200000                    
       2.846294      12.090341      -1.560703      -0.200000                    
       2.250554      10.670637      -0.622428      -0.006000                    
       1.306519      10.923825      -0.140098       0.103000                    
       2.099938       9.826994      -1.295903       0.103000                    
       3.282003      10.294231       0.442824      -0.006000                    
       4.226039      10.041055      -0.039514       0.103000                    
       3.432621      11.137876       1.116289       0.103000                    
       2.686264       8.874538       1.381091      -0.200000                    
      -9.408305      -5.957119       0.682302      -0.200000                    
      -8.116237      -4.893387       0.011506      -0.006000                    
      -7.167942      -5.430650       0.008823       0.103000                    
      -8.374362      -4.606357      -1.007768       0.103000                    
      -7.988306      -3.638549       0.877200      -0.006000                    
      -8.936591      -3.101285       0.879874       0.103000                    
      -7.730182      -3.925588       1.896472       0.103000                    
      -6.696229      -2.574826       0.206403      -0.200000                    
       2.394049      -0.623781      -8.195797      -0.200000                    
       1.588089      -0.462162      -6.591047      -0.006000                    
       2.006515      -1.192703      -5.898820       0.103000                    
       1.751388       0.542680      -6.201745       0.103000                    
       0.086598      -0.710162      -6.747248      -0.006000                    
      -0.331827       0.020378      -7.439473       0.103000                    
      -0.076700      -1.715014      -7.136552       0.103000                    
      -0.719371      -0.548553      -5.142501      -0.200000                    
      -6.100686       3.043811      -4.216387      -0.200000                    
      -6.458138       3.877262      -2.658012      -0.006000                    
      -5.523123       4.138351      -2.162518       0.103000                    
      -7.031392       4.783408      -2.853466       0.103000                    
      -7.269814       2.945649      -1.755964      -0.006000                    
      -8.204839       2.684560      -2.251460       0.103000                    
      -6.696560       2.039495      -1.560522       0.103000                    
      -7.627266       3.779099      -0.197590      -0.200000                    
       2.358870      -2.257920       7.434183      -0.200000                    
       3.244602      -3.713473       6.844527      -0.006000                    
       4.159582      -3.841336       7.422817       0.103000                    
       2.614296      -4.594875       6.961729       0.103000                    
       3.597042      -3.532075       5.366943      -0.006000                    
       2.682072      -3.404211       4.788654       0.103000                    
       4.227358      -2.650662       5.249743       0.103000                    
       4.482785      -4.987628       4.777288      -0.200000                    
      -4.015419       1.516052       5.533267      -0.200000                    
      -2.967865       0.108462       5.948267      -0.006000                    
      -3.386783      -0.797877       5.511224       0.103000                    
      -1.965248       0.272554       5.553567       0.103000                    
      -2.898025      -0.044446       7.468816      -0.006000                    
      -2.479105       0.861894       7.905851       0.103000                    
      -3.900641      -0.208547       7.863505       0.103000                    
      -1.850470      -1.452035       7.883808      -0.200000                    
      -9.419552      -1.545703       3.082619      -0.200000                    
      -8.203501      -1.282473       4.387553      -0.006000                    
      -7.853764      -0.250662       4.355860       0.103000                    
      -8.661087      -1.481624       5.356522       0.103000                    
      -7.019290      -2.228346       4.179398      -0.006000                    
      -7.369018      -3.260157       4.211092       0.103000                    
      -6.561693      -2.029183       3.210423       0.103000                    
      -5.803238      -1.965104       5.484324      -0.200000                    
       7.448637       7.187018       7.969972      -0.200000                    
       7.324625       6.165776       6.489219      -0.006000                    
       7.148124       6.802325       5.622278       0.103000                    
       8.253117       5.612031       6.350662       0.103000                    
       6.163141       5.182211       6.643902      -0.006000                    
       6.339642       4.545664       7.510833       0.103000                    
       5.234649       5.735956       6.782459       0.103000                    
       6.039128       4.160972       5.163138      -0.200000                    
       4.226565       8.457502       6.158954      -0.200000                    
       2.603271       8.067715       5.477930      -0.006000                    
       2.572645       8.351345       4.426002       0.103000                    
       2.417038       6.997910       5.571583       0.103000                    
       1.529247       8.840847       6.245454      -0.006000                    
       1.559882       8.557216       7.297384       0.103000                    
       1.715489       9.910649       6.151802       0.103000                    
      -0.094047       8.451059       5.564430      -0.200000                    
       8.457398       4.191135       2.487990      -0.200000                    
       9.505733       5.313715       1.543635      -0.006000                    
      10.534265       5.232878       1.895137       0.103000                    
       9.460919       5.050563       0.486913       0.103000                    
       9.014391       6.750174       1.732162      -0.006000                    
       7.985850       6.831012       1.380659       0.103000                    
       9.059196       7.013326       2.788883       0.103000                    
      10.062716       7.872754       0.787806      -0.200000                    
      12.778221       5.362070      -3.225124      -0.200000                    
      11.340139       4.274757      -3.247269      -0.006000                    
      11.053231       4.072327      -4.279089       0.103000                    
      11.585118       3.337662      -2.747520       0.103000                    
      10.177686       4.951819      -2.518805      -0.006000                    
      10.464583       5.154260      -1.486984       0.103000                    
       9.932697       5.888916      -3.018565       0.103000                    
       8.739603       3.864506      -2.540951      -0.200000                    
      -5.246375     -10.032062       3.454970      -0.200000                    
      -3.999949      -8.768641       3.137029      -0.006000                    
      -4.340271      -8.116397       2.332873       0.103000                    
      -3.840690      -8.179622       4.040134       0.103000                    
      -2.687079      -9.439068       2.728027      -0.006000                    
      -2.346757     -10.091312       3.532183       0.103000                    
      -2.846329     -10.028087       1.824925       0.103000                    
      -1.440654      -8.175657       2.410085      -0.200000                    
       7.316998      -4.802222      -0.794005      -0.200000                    
       8.816726      -3.802705      -0.846302      -0.006000                    
       9.565485      -4.302481      -1.460727       0.103000                    
       8.588305      -2.826487      -1.273776       0.103000                    
       9.359538      -3.623085       0.572689      -0.006000                    
       8.610778      -3.123311       1.187124       0.103000                    
       9.587958      -4.599312       1.000161       0.103000                    
      10.859263      -2.623569       0.520402      -0.200000                    
      -0.499396       9.953248      -3.102627      -0.200000                    
       0.002032      10.163248      -4.821749      -0.006000                    
       0.663853       9.346561      -5.109811       0.103000                    
      -0.880659      10.158657      -5.461092       0.103000                    
       0.738118      11.495081      -4.979185      -0.006000                    
       0.076297      12.311768      -4.691123       0.103000                    
       1.620809      11.499672      -4.339842       0.103000                    
       1.239546      11.705081      -6.698307      -0.200000                    
       8.040812      -5.795341      -5.852408      -0.200000                    
       6.877447      -4.526998      -5.314995      -0.006000                    
       6.429900      -4.822679      -4.366191       0.103000                    
       7.403558      -3.580721      -5.189587       0.103000                    
       5.779141      -4.363622      -6.367322      -0.006000                    
       6.226689      -4.067948      -7.316138       0.103000                    
       5.253031      -5.309896      -6.492740       0.103000                    
       4.615786      -3.095286      -5.829919      -0.200000                    
      -7.036371      10.501560      -5.181508      -0.200000                    
      -5.846324       9.147040      -5.174923      -0.006000                    
      -6.063689       8.468083      -5.999385       0.103000                    
      -4.839097       9.547428      -5.289570       0.103000                    
      -5.945040       8.387967      -3.850366      -0.006000                    
      -5.727674       9.066924      -3.025906       0.103000                    
      -6.952266       7.987579      -3.735719       0.103000                    
      -4.754992       7.033448      -3.843782      -0.200000                    
      -3.166925      -5.265338       5.770000      -0.200000                    
      -1.681546      -6.198287       6.187305      -0.006000                    
      -1.959046      -7.094959       6.741309       0.103000                    
      -1.161701      -6.482486       5.272464       0.103000                    
      -0.760468      -5.332087       7.048499      -0.006000                    
      -0.482968      -4.435424       6.494493       0.103000                    
      -1.280313      -5.047887       7.963340       0.103000                    
       0.724911      -6.265045       7.465802      -0.200000                    
       4.127667     -10.369506      -1.118395      -0.200000                    
       5.148506      -9.507266       0.092066      -0.006000                    
       5.325056     -10.158089       0.948330       0.103000                    
       6.101795      -9.237677      -0.362375       0.103000                    
       4.428616      -8.239532       0.555684      -0.006000                    
       4.252066      -7.588709      -0.300580       0.103000                    
       3.475327      -8.509120       1.010116       0.103000                    
       5.449454      -7.377282       1.766148      -0.200000                    
       1.727171     -10.546259      -3.685443      -0.200000                    
       0.108675     -10.780397      -2.926128      -0.006000                    
      -0.665943     -10.419455      -3.602625       0.103000                    
      -0.048864     -11.840009      -2.725347       0.103000                    
       0.043380      -9.997929      -1.613186      -0.006000                    
       0.817997     -10.358872      -0.936690       0.103000                    
       0.200919      -8.938308      -1.813966       0.103000                    
      -1.575106     -10.232066      -0.853871      -0.200000                    
       1.924203      -7.465446       4.131432      -0.200000                    
       2.333491      -8.686971       5.392894      -0.006000                    
       1.537841      -8.721814       6.136986       0.103000                    
       2.440294      -9.667287       4.928641       0.103000                    
       3.648589      -8.298540       6.071155      -0.006000                    
       4.444240      -8.263687       5.327065       0.103000                    
       3.541785      -7.318225       6.535416       0.103000                    
       4.057888      -9.520065       7.332618      -0.200000                    
      -8.801105      -0.407773      -6.260422      -0.200000                    
      -8.247337      -0.143673      -4.564996      -0.006000                    
      -7.285277      -0.633834      -4.416220       0.103000                    
      -8.143442       0.925198      -4.378777       0.103000                    
      -9.274171      -0.732186      -3.595650      -0.006000                    
     -10.236232      -0.242025      -3.744426       0.103000                    
      -9.378069      -1.801059      -3.781860       0.103000                    
      -8.720406      -0.468088      -1.900215      -0.200000                    
      12.263078       0.603977      -1.700656      -0.200000                    
      10.539833       0.433661      -2.202953      -0.006000                    
       9.957006       0.034232      -1.373058       0.103000                    
      10.145946       1.409254      -2.487505       0.103000                    
      10.448185      -0.520263      -3.395432      -0.006000                    
      11.031013      -0.120835      -4.225327       0.103000                    
      10.842072      -1.495856      -3.110880       0.103000                    
       8.724939      -0.690570      -3.897727      -0.200000                    
      -2.229833      -5.898575      -7.884016      -0.200000                    
      -3.048697      -4.382391      -7.353390      -0.006000                    
      -2.507429      -3.952673      -6.510595       0.103000                    
      -3.063312      -3.669453      -8.177662       0.103000                    
      -4.483750      -4.699657      -6.928782      -0.006000                    
      -5.025019      -5.129377      -7.771568       0.103000                    
      -4.469125      -5.412594      -6.104510       0.103000                    
      -5.302614      -3.183483      -6.398160      -0.200000                    
       9.523129       2.968195       6.583976      -0.200000                    
       9.470067       1.765840       5.241439      -0.006000                    
       8.954081       0.866937       5.578603       0.103000                    
       8.938190       2.193156       4.391490       0.103000                    
      10.896713       1.407063       4.821538      -0.006000                    
      11.412700       2.305966       4.484375       0.103000                    
      11.428590       0.979747       5.671487       0.103000                    
      10.843641       0.204708       3.479001      -0.200000                    
      -2.274836       4.896241      -6.973233      -0.200000                    
      -3.458823       6.230554      -7.235375      -0.006000                    
      -4.243309       6.173985      -6.480834       0.103000                    
      -2.948142       7.190282      -7.157633       0.103000                    
      -4.079787       6.095201      -8.626946      -0.006000                    
      -3.295301       6.151770      -9.381486       0.103000                    
      -4.590458       5.135464      -8.704689       0.103000                    
      -5.263774       7.429505      -8.889091      -0.200000                    
      -9.052550       2.834830       4.647576      -0.200000                    
      -8.935006       4.074045       3.343178      -0.006000                    
      -8.573983       5.012207       3.764419       0.103000                    
      -8.241933       3.729547       2.575781       0.103000                    
     -10.315669       4.292651       2.721590      -0.006000                    
     -10.676691       3.354492       2.300339       0.103000                    
     -11.008741       4.637150       3.488987       0.103000                    
     -10.198124       5.531868       1.417182      -0.200000                    
       9.369192      -6.293295       3.365232      -0.200000                    
       8.381293      -4.824027       3.706233      -0.006000                    
       8.932446      -3.935725       3.397937       0.103000                    
       7.443550      -4.880108       3.153566       0.103000                    
       8.085280      -4.745162       5.205085      -0.006000                    
       7.534126      -5.633475       5.513389       0.103000                    
       9.023024      -4.689091       5.757751       0.103000                    
       7.097381      -3.275904       5.546084      -0.200000                    
       7.656429       8.245539      -5.336343      -0.200000                    
       8.368984       6.615573      -5.630190      -0.006000                    
       9.425140       6.719858      -5.878347       0.103000                    
       8.264875       6.006078      -4.732635       0.103000                    
       7.636985       5.940922      -6.791828      -0.006000                    
       6.580828       5.836647      -6.543668       0.103000                    
       7.741103       6.550426      -7.689378       0.103000                    
       8.349540       4.310956      -7.085673      -0.200000                    
       4.065486      12.724509       3.741408      -0.200000                    