%nprocshared=4                                                                       
%mem=8GB                                                                             
#P pop=chelpg cam-b3lyp/gen scf=qc int=ultrafine charge td(nstates=10)               
                                                                                     
pNA CAM-B3LYP def2-TZVPD Single point - solvent def2-SV(P)                           
                                                                                     
0 1                                                                                  
 C       1.389235       0.000000      -0.000000                                 
 C       0.000000       0.000000      -0.000000                                 
 C      -0.711164       1.193419       0.000000                                 
 C      -0.034074       2.386367       0.000141                                 
 C       1.370482       2.412065       0.000933                                 
 C       2.067428       1.192342       0.000144                                 
 H       1.924301      -0.937208       0.000967                                 
 H      -1.790186       1.173300       0.000962                                 
 H      -0.583208       3.318526      -0.000772                                 
 H       3.149318       1.197759      -0.000767                                 
 N      -0.711160      -1.251627       0.001756                                 
 O      -1.932441      -1.229701       0.002542                                 
 O      -0.067142      -2.289538       0.002483                                 
 N       2.040236       3.590780      -0.024683                                 
 H       1.546357       4.451509       0.132529                                 
 H       3.032458       3.607145       0.132525                                 
Cl      -5.244449       1.235147      -3.024044                                 
 C      -3.844660       0.198058      -2.559257                                 
 H      -3.327893       0.644214      -1.709645                                 
 H      -4.202418      -0.794756      -2.286685                                 
 C      -2.879274       0.085083      -3.740610                                 
 H      -3.396039      -0.361077      -4.590230                                 
 H      -2.521515       1.077897      -4.013181                                 
Cl      -1.479484      -0.952011      -3.275832                                 
Cl      -0.989842       5.914571       0.514437                                 
 C      -1.421560       7.612021       0.086479                                 
 H      -1.275632       8.254281       0.954886                                 
 H      -0.785475       7.954197      -0.729766                                 
 C      -2.886552       7.670947      -0.350260                                 
 H      -3.032480       7.028684      -1.218677                                 
 H      -3.522636       7.328766       0.465975                                 
Cl      -3.318277       9.368401      -0.778232                                 
Cl       0.639821      -4.657853      -2.931623                                 
 C       1.809542      -3.398116      -2.387724                                 
 H       1.420556      -2.410195      -2.634043                                 
 H       1.951193      -3.474668      -1.309747                                 
 C       3.150279      -3.608300      -3.093885                                 
 H       3.539265      -4.596220      -2.847566                                 
 H       3.008627      -3.531744      -4.171854                                 
Cl       4.320007      -2.348569      -2.549983                                 
Cl      -3.529687      -3.923025      -3.265333                                 
 C      -2.667414      -4.337687      -1.737122                                 
 H      -2.076852      -5.241479      -1.886616                                 
 H      -2.009174      -3.515546      -1.456481                                 
 C      -3.689065      -4.575166      -0.623474                                 
 H      -4.279620      -3.671380      -0.473977                                 
 H      -4.347304      -5.397307      -0.904115                                 
Cl      -2.826791      -4.989829       0.904738                                 
Cl       2.982331       5.691337      -4.714560                                 
 C       1.197821       5.449013      -4.627079                                 
 H       0.705927       6.412947      -4.497410                                 
 H       0.848481       4.983653      -5.548696                                 
 C       0.863794       4.542964      -3.440547                                 
 H       1.355674       3.579030      -3.570218                                 
 H       1.213120       5.008324      -2.518932                                 
Cl      -0.920731       4.300640      -3.353068                                 
                                                                                
       4.935398      -0.777415       0.731922      -0.200000                    
       4.910427      -2.548457       1.069062      -0.006000                    
       4.825141      -2.712946       2.143113       0.103000                    
       4.058849      -3.002948       0.562904       0.103000                    
       6.205052      -3.183186       0.557732      -0.006000                    
       6.290346      -3.018703      -0.516315       0.103000                    
       7.056645      -2.728699       1.063882       0.103000                    
       6.180083      -4.954233       0.894863      -0.200000                    
       4.222760      10.537324       0.557203      -0.200000                    
       4.297180       8.805330       0.061560      -0.006000                    
       5.063762       8.678499      -0.702778       0.103000                    
       4.541457       8.189627       0.927138       0.103000                    
       2.940655       8.377323      -0.501512      -0.006000                    
       2.174073       8.504137       0.262824       0.103000                    
       2.696378       8.993011      -1.367092       0.103000                    
       3.015080       6.645324      -0.997150      -0.200000                    
       1.149316       3.525361       4.624728      -0.200000                    
       2.831154       3.174208       4.077952      -0.006000                    
       3.066782       3.788715       3.209154       0.103000                    
       3.529917       3.400101       4.883314       0.103000                    
       2.947112       1.695663       3.702664      -0.006000                    
       2.711483       1.081173       4.571465       0.103000                    
       2.248349       1.469787       2.897306       0.103000                    
       4.628951       1.344523       3.155883      -0.200000                    
       2.374722      -1.825917       3.107148      -0.200000                    
       2.073035      -3.593555       2.918945      -0.006000                    
       2.180822      -3.871177       1.870496       0.103000                    
       2.792554      -4.151038       3.518492       0.103000                    
       0.654910      -3.921780       3.389618      -0.006000                    
       0.547117      -3.644164       4.438070       0.103000                    
      -0.064616      -3.364304       2.790073       0.103000                    
       0.353224      -5.689417       3.201415      -0.200000                    
      -8.077555       1.133468       1.110190      -0.200000                    
      -6.785248       0.222311       1.976571      -0.006000                    
      -6.776895       0.513389       3.026885       0.103000                    
      -6.978966      -0.847317       1.897278       0.103000                    
      -5.427387       0.541986       1.348571      -0.006000                    
      -5.435742       0.250908       0.298257       0.103000                    
      -5.233671       1.611618       1.427873       0.103000                    
      -4.135081      -0.369171       2.214952      -0.200000                    
       6.875407       0.385970      -5.279885      -0.200000                    
       5.991080       1.819951      -4.637533      -0.006000                    
       6.298371       2.711458      -5.184124       0.103000                    
       4.918392       1.670308      -4.759701       0.103000                    
       6.315048       1.995808      -3.152780      -0.006000                    
       6.007750       1.104307      -2.606192       0.103000                    
       7.387728       2.145449      -3.030601       0.103000                    
       5.430705       3.429792      -2.510420      -0.200000                    
      -4.297522       0.927062       5.775853      -0.200000                    
      -2.946620      -0.264118       5.691785      -0.006000                    
      -2.692765      -0.597577       6.697930       0.103000                    
      -3.253834      -1.120503       5.091630       0.103000                    
      -1.724422       0.395404       5.050196      -0.006000                    
      -1.978280       0.728867       4.044059       0.103000                    
      -1.417209       1.251789       5.650351       0.103000                    
      -0.373521      -0.795777       4.966127      -0.200000                    
      -2.931257       3.387944       3.545181      -0.200000                    
      -3.106947       5.173401       3.724499      -0.006000                    
      -3.196505       5.425632       4.781048       0.103000                    
      -2.231219       5.668816       3.305415       0.103000                    
      -4.360291       5.639636       2.981463      -0.006000                    
      -4.270733       5.387405       1.924914       0.103000                    
      -5.236012       5.144228       3.400545       0.103000                    
      -4.535988       7.425100       3.160777      -0.200000                    
       7.704039       7.817295      -4.141565      -0.200000                    
       6.713021       7.185724      -2.774169      -0.006000                    
       6.179399       8.009843      -2.300848       0.103000                    
       5.995621       6.456995      -3.151291       0.103000                    
       7.628417       6.515390      -1.747986      -0.006000                    
       8.162024       5.691271      -2.221308       0.103000                    
       8.345809       7.244125      -1.370867       0.103000                    
       6.637393       5.883812      -0.380587      -0.200000                    
      -0.096859      -9.826350       0.026734      -0.200000                    
       0.598753      -8.254000       0.569677      -0.006000                    
      -0.168728      -7.481507       0.523191       0.103000                    
       0.956914      -8.349466       1.594648       0.103000                    
       1.764374      -7.869621      -0.343510      -0.006000                    
       2.531849      -8.642113      -0.297036       0.103000                    
       1.406213      -7.774155      -1.368481       0.103000                    
       2.459979      -6.297266       0.199430      -0.200000                    
       2.876055      -0.233770      -4.665431      -0.200000                    
       1.876102       0.707490      -5.833802      -0.006000                    
       1.790792       0.153230      -6.768383       0.103000                    
       0.882929       0.868866      -5.414870       0.103000                    
       2.541602       2.058653      -6.101803      -0.006000                    
       2.626911       2.612917      -5.167213       0.103000                    
       3.534781       1.897289      -6.520728       0.103000                    
       1.541656       2.999920      -7.270176      -0.200000                    
       6.168498       4.767107       3.887247      -0.200000                    
       6.722343       3.556267       5.102982      -0.006000                    
       6.611513       3.970333       6.105081       0.103000                    
       6.121107       2.651465       5.014925       0.103000                    
       8.192812       3.217231       4.851673      -0.006000                    
       8.303643       2.803160       3.849565       0.103000                    
       8.794048       4.122029       4.939720       0.103000                    
       8.746658       2.006387       6.067399      -0.200000                    
      -6.660230      -1.932656      -2.235337      -0.200000                    
      -7.782362      -2.282641      -3.602530      -0.006000                    
      -7.488339      -3.214853      -4.084691       0.103000                    
      -8.800007      -2.374744      -3.223191       0.103000                    
      -7.719035      -1.141254      -4.619177      -0.006000                    
      -8.013058      -0.209043      -4.137016       0.103000                    
      -6.701390      -1.049146      -4.998507       0.103000                    
      -8.841166      -1.491239      -5.986370      -0.200000                    
      -8.719794       5.004550      -2.744954      -0.200000                    
      -7.484516       5.061011      -1.432776      -0.006000                    
      -6.489875       5.132684      -1.872616       0.103000                    
      -7.665685       5.929769      -0.800024       0.103000                    
      -7.577992       3.788113      -0.589327      -0.006000                    
      -8.572629       3.716452      -0.149481       0.103000                    
      -7.396824       2.919355      -1.222079       0.103000                    
      -6.342708       3.844585       0.722858      -0.200000                    
      10.345577       5.028211      -0.628637      -0.200000                    
       9.743983       3.372024      -0.246509      -0.006000                    
       8.979575       3.087111      -0.969300       0.103000                    
      10.571619       2.664461      -0.294670       0.103000                    
       9.144286       3.359426       1.160812      -0.006000                    
       9.908687       3.644336       1.883616       0.103000                    
       8.316645       4.066984       1.208976       0.103000                    
       8.542686       1.703232       1.542943      -0.200000                    
       4.070121       7.359456       3.947063      -0.200000                    
       5.142985       8.248067       5.091759      -0.006000                    
       4.761599       8.138567       6.106887       0.103000                    
       6.151795       7.839214       5.036317       0.103000                    
       5.172867       9.730726       4.716008      -0.006000                    
       5.554246       9.840232       3.700876       0.103000                    
       4.164050      10.139590       4.771455       0.103000                    
       6.245718      10.619338       5.860702      -0.200000                    
      -4.662255      -6.615638       4.533160      -0.200000                    
      -6.107746      -6.203470       3.537384      -0.006000                    
      -6.401230      -7.070756       2.946121       0.103000                    
      -6.929903      -5.914694       4.192052       0.103000                    
      -5.768416      -5.040912       2.602669      -0.006000                    
      -5.474932      -4.173625       3.193932       0.103000                    
      -4.946259      -5.329688       1.948001       0.103000                    
      -7.213906      -4.628743       1.606893      -0.200000                    
       0.078138      11.863107       3.992810      -0.200000                    
       0.155069      10.072087       3.799847      -0.006000                    
      -0.504023       9.765245       2.987816       0.103000                    
       1.178133       9.774816       3.569811       0.103000                    
      -0.290792       9.399584       5.099571      -0.006000                    
       0.368293       9.706432       5.911600       0.103000                    
      -1.313850       9.696867       5.329614       0.103000                    
      -0.213862       7.608569       4.906618      -0.200000                    
       5.580204      -4.109626       6.220504      -0.200000                    
       5.141568      -2.595507       7.095719      -0.006000                    
       4.097797      -2.644108       7.405700       0.103000                    
       5.777093      -2.486374       7.974438       0.103000                    
       5.342475      -1.394651       6.169433      -0.006000                    
       6.386246      -1.346050       5.859451       0.103000                    
       4.706948      -1.503780       5.290722       0.103000                    
       4.903838       0.119468       7.044647      -0.200000                    
      -1.533105      10.447322      -3.813649      -0.200000                    
      -2.070022       8.771402      -4.206022      -0.006000                    
      -1.571911       8.065182      -3.541895       0.103000                    
      -3.149257       8.695158      -4.074280       0.103000                    
      -1.709795       8.447111      -5.657039      -0.006000                    
      -2.207912       9.153337      -6.321169       0.103000                    
      -0.630565       8.523349      -5.788778       0.103000                    
      -2.246717       6.771185      -6.049408      -0.200000                    
       1.652480      -4.863998      -7.783935      -0.200000                    
       0.184748      -4.428847      -6.831381      -0.006000                    
      -0.277726      -5.335541      -6.441577       0.103000                    
       0.468280      -3.780160      -6.002666       0.103000                    
      -0.810353      -3.696905      -7.733820      -0.006000                    
      -0.347873      -2.790200      -8.123618       0.103000                    
      -1.093887      -4.345587      -8.562527       0.103000                    
      -2.278085      -3.261753      -6.781267      -0.200000                    
       1.710744       7.719327       7.821541      -0.200000                    
       2.155643       6.032415       8.276907      -0.006000                    
       2.511050       6.015646       9.307120       0.103000                    
       1.281603       5.388035       8.183314       0.103000                    
       3.261874       5.528416       7.348137      -0.006000                    
       2.906467       5.545185       6.317924       0.103000                    
       4.135908       6.172790       7.441733       0.103000                    
       3.706773       3.841491       7.803510      -0.200000                    
      12.535911      -1.863690      -0.074919      -0.200000                    
      11.225634      -0.657099      -0.354670      -0.006000                    
      10.461267      -0.765438       0.414732       0.103000                    
      11.642928       0.348926      -0.313445       0.103000                    
      10.600314      -0.893215      -1.730752      -0.006000                    
      11.364680      -0.784877      -2.500154       0.103000                    
      10.183021      -1.899240      -1.771977       0.103000                    
       9.290037       0.313389      -2.010509      -0.200000                    
      -3.486946      -3.454941       7.054745      -0.200000                    
      -2.046246      -4.537995       7.006961      -0.006000                    
      -2.222088      -5.405275       7.643283       0.103000                    
      -1.873090      -4.867753       5.982641       0.103000                    
      -0.818958      -3.776577       7.511341      -0.006000                    
      -0.643116      -2.909297       6.875019       0.103000                    
      -0.992114      -3.446819       8.535661       0.103000                    
       0.621749      -4.859620       7.463564      -0.200000                    
       8.202414      -2.100568       3.375612      -0.200000                    
       8.892152      -3.701803       2.916103      -0.006000                    
       8.277720      -4.496982       3.338106       0.103000                    
       8.908518      -3.792474       1.830078       0.103000                    
      10.317951      -3.817450       3.458468      -0.006000                    
      10.932383      -3.022271       3.036465       0.103000                    
      10.301583      -3.726774       4.544501       0.103000                    
      11.007689      -5.418673       2.998953      -0.200000                    
      -3.627551     -11.103802       3.798854      -0.200000                    
      -3.740412     -10.482444       2.110038      -0.006000                    
      -3.113506     -11.089197       1.456753       0.103000                    
      -4.775242     -10.534490       1.771887       0.103000                    
      -3.263313      -9.029527       2.068314      -0.006000                    
      -3.890212      -8.422764       2.721606       0.103000                    
      -2.228483      -8.977482       2.406465       0.103000                    
      -3.376166      -8.408176       0.379502      -0.200000                    
      -9.963655      -2.634361       3.189702      -0.200000                    
     -10.427238      -2.875610       1.464077      -0.006000                    
      -9.961255      -3.785572       1.086225       0.103000                    
     -11.510931      -2.963346       1.387591       0.103000                    
      -9.953371      -1.679254       0.636724      -0.006000                    
     -10.419362      -0.769293       1.014586       0.103000                    
      -8.869678      -1.591518       0.713209       0.103000                    
     -10.416955      -1.920498      -1.088893      -0.200000                    
       6.510984      -5.336174      -2.934378      -0.200000                    
       6.358935      -5.489382      -4.724436      -0.006000                    
       5.360250      -5.179936      -5.032284       0.103000                    
       7.101436      -4.854732      -5.208032       0.103000                    
       6.589643      -6.945467      -5.133033      -0.006000                    
       7.588320      -7.254915      -4.825172       0.103000                    
       5.847143      -7.580118      -4.649437       0.103000                    
       6.437594      -7.098676      -6.923091      -0.200000                    
       8.138788       8.616701       1.242583      -0.200000                    
       9.400367       7.493886       1.873978      -0.006000                    
       9.257772       7.352209       2.945223       0.103000                    
       9.318920       6.532952       1.366147       0.103000                    
      10.786430       8.089006       1.618900      -0.006000                    
      10.929031       8.230679       0.547660       0.103000                    
      10.867883       9.049934       2.126735       0.103000                    
      12.048008       6.966191       2.250297      -0.200000                    
      -5.223233       5.856901      -9.252942      -0.200000                    
      -5.572116       5.932258      -7.485604      -0.006000                    
      -5.141944       6.842743      -7.068582       0.103000                    
      -6.650544       5.934216      -7.327648       0.103000                    
      -4.957927       4.714731      -6.792218      -0.006000                    
      -5.388106       3.804243      -7.209228       0.103000                    
      -3.879500       4.712777      -6.950165       0.103000                    
      -5.306817       4.790098      -5.024873      -0.200000                    
       4.356166       9.610953      -3.899244      -0.200000                    
       3.627995       9.795343      -5.538349      -0.006000                    
       4.309323      10.356392      -6.177856       0.103000                    
       3.451557       8.810512      -5.970686       0.103000                    
       2.300483      10.547149      -5.424943      -0.006000                    
       1.619148       9.986107      -4.785440       0.103000                    
       2.476921      11.531981      -4.992607       0.103000                    
       1.572304      10.731545      -7.064052      -0.200000                    
      -0.201942       2.557776       8.297811      -0.200000                    
       1.118635       1.340097       8.141955      -0.006000                    
       1.427107       1.269788       7.098968       0.103000                    
       1.968345       1.645098       8.752619       0.103000                    
       0.613451      -0.023595       8.616786      -0.006000                    
       0.304978       0.046719       9.659781       0.103000                    
      -0.236259      -0.328596       8.006122       0.103000                    
       1.934033      -1.241276       8.460943      -0.200000                    
      -4.839077      -8.463573      -4.074362      -0.200000                    
      -4.242846      -7.149251      -5.155055      -0.006000                    
      -5.085650      -6.547309      -5.494581       0.103000                    
      -3.542481      -6.518318      -4.607924       0.103000                    
      -3.536407      -7.764612      -6.364454      -0.006000                    
      -2.693601      -8.366558      -6.024937       0.103000                    
      -4.236771      -8.395545      -6.911585       0.103000                    
      -2.940181      -6.450300      -7.445154      -0.200000                    
       6.095328       5.376493      -6.134694      -0.200000                    
       5.708878       6.970856      -6.882647      -0.006000                    
       5.244652       7.618380      -6.138914       0.103000                    
       6.626216       7.433913      -7.246007       0.103000                    
       4.744301       6.765092      -8.052087      -0.006000                    
       5.208513       6.117562      -8.795830       0.103000                    
       3.826949       6.302034      -7.688727       0.103000                    
       4.357837       8.359454      -8.800040      -0.200000                    
      -0.414700      11.357028      -0.394850      -0.200000                    
      -1.150590      12.916202      -0.922502      -0.006000                    
      -0.425273      13.720452      -0.799886       0.103000                    
      -1.440750      12.844978      -1.970692       0.103000                    
      -2.386688      13.210750      -0.070655      -0.006000                    
      -3.112005      12.406486      -0.193264       0.103000                    
      -2.096527      13.281960       0.977541       0.103000                    
      -3.122569      14.769916      -0.598301      -0.200000                    
      -1.128751     -10.279933      -4.193450      -0.200000                    
       0.509758      -9.977664      -3.504349      -0.006000                    
       0.412487      -9.611559      -2.482346       0.103000                    
       1.081411     -10.905659      -3.505239       0.103000                    
       1.234971      -8.931801      -4.353237      -0.006000                    
       1.332241      -9.297906      -5.375241       0.103000                    
       0.663311      -8.003812      -4.352345       0.103000                    
       2.873466      -8.629533      -3.664137      -0.200000                    
      -7.791990      -5.484925      -2.531467      -0.200000                    
      -8.087438      -7.115427      -1.820717      -0.006000                    
      -9.020734      -7.103034      -1.257926       0.103000                    
      -8.154523      -7.853642      -2.619787       0.103000                    
      -6.933345      -7.480696      -0.885334      -0.006000                    
      -6.000049      -7.493090      -1.448125       0.103000                    
      -6.866253      -6.742488      -0.086260       0.103000                    
      -7.228785      -9.111205      -0.174581      -0.200000                    
      -2.287643      -1.108549      -9.997387      -0.200000                    
      -2.333650       0.602101      -9.429499      -0.006000                    
      -1.494468       1.150064      -9.857816       0.103000                    
      -3.268824       1.064792      -9.744677       0.103000                    
      -2.237920       0.635419      -7.903035      -0.006000                    
      -3.077101       0.087452      -7.474727       0.103000                    
      -1.302737       0.172730      -7.587869       0.103000                    
      -2.283925       2.346076      -7.335163      -0.200000                    
       5.939985      -8.350644      -0.955723      -0.200000                    