%nprocshared=4                                                                       
%mem=8GB                                                                             
#P pop=chelpg cam-b3lyp/gen scf=qc int=ultrafine charge td(nstates=10)               
                                                                                     
pNA CAM-B3LYP def2-TZVPD Single point - solvent def2-SV(P)                           
                                                                                     
0 1                                                                                  
 C       1.389235       0.000000      -0.000000                                 
 C       0.000000       0.000000      -0.000000                                 
 C      -0.711164       1.193419       0.000000                                 
 C      -0.034074       2.386367       0.000141                                 
 C       1.370482       2.412065       0.000933                                 
 C       2.067428       1.192342       0.000144                                 
 H       1.924301      -0.937208       0.000967                                 
 H      -1.790186       1.173300       0.000962                                 
 H      -0.583208       3.318526      -0.000772                                 
 H       3.149318       1.197759      -0.000767                                 
 N      -0.711160      -1.251627       0.001756                                 
 O      -1.932441      -1.229701       0.002542                                 
 O      -0.067142      -2.289538       0.002483                                 
 N       2.040236       3.590780      -0.024683                                 
 H       1.546357       4.451509       0.132529                                 
 H       3.032458       3.607145       0.132525                                 
Cl      -3.705489       5.787970       2.836705                                 
 C      -2.320183       5.407486       1.747183                                 
 H      -2.037314       4.362133       1.870229                                 
 H      -2.611937       5.585792       0.712271                                 
 C      -1.131233       6.302150       2.102617                                 
 H      -1.414107       7.347507       1.979577                                 
 H      -0.839479       6.123851       3.137523                                 
Cl       0.254067       5.921671       1.013102                                 
Cl      -3.636982       2.109128      -2.187194                                 
 C      -2.530842       1.836648      -3.584726                                 
 H      -3.118714       1.696070      -4.491671                                 
 H      -1.877551       2.700739      -3.705191                                 
 C      -1.683301       0.589071      -3.328541                                 
 H      -1.095436       0.729646      -2.421584                                 
 H      -2.336599      -0.275023      -3.208063                                 
Cl      -0.577163       0.316583      -4.726067                                 
Cl       4.231684      -1.683261       1.496757                                 
 C       4.876209      -0.239341       2.363085                                 
 H       5.861725      -0.468412       2.768341                                 
 H       4.954193       0.596752       1.668239                                 
 C       3.929902       0.134342       3.505556                                 
 H       2.944386       0.363413       3.100301                                 
 H       3.851910      -0.701755       4.200398                                 
Cl       4.574427       1.578262       4.371884                                 
Cl       2.210382      -4.130301       4.183894                                 
 C       2.835044      -4.805929       2.633334                                 
 H       3.832253      -4.410760       2.440115                                 
 H       2.881788      -5.892632       2.702899                                 
 C       1.899291      -4.408467       1.490203                                 
 H       0.902083      -4.803636       1.683421                                 
 H       1.852547      -3.321772       1.420644                                 
Cl       2.523945      -5.084097      -0.060362                                 
Cl      -0.774055      -6.246383      -0.789258                                 
 C      -1.077737      -4.939605      -1.993830                                 
 H      -0.379995      -4.119629      -1.824403                                 
 H      -0.938303      -5.333486      -3.000497                                 
 C      -2.511466      -4.428293      -1.840956                                 
 H      -3.209211      -5.248285      -2.010389                                 
 H      -2.650909      -4.034415      -0.834294                                 
Cl      -2.815157      -3.121518      -3.045533                                 
                                                                                
       8.047126       6.217566      -0.975310      -0.200000                    
       7.535271       4.495166      -0.826027      -0.006000                    
       7.566604       4.020300      -1.806568       0.103000                    
       8.209668       3.972969      -0.147454       0.103000                    
       6.109434       4.432831      -0.275175      -0.006000                    
       6.078109       4.907700       0.705371       0.103000                    
       5.435050       4.955027      -0.953750       0.103000                    
       5.597588       2.710443      -0.125894      -0.200000                    
       4.268296       0.862860      -3.270985      -0.200000                    
       3.619019       2.527648      -3.511698      -0.006000                    
       3.606547       3.054489      -2.557635       0.103000                    
       4.252312       3.066505      -4.216340       0.103000                    
       2.195730       2.444629      -4.066417      -0.006000                    
       2.208201       1.917780      -5.020474       0.103000                    
       1.562436       1.905771      -3.361776       0.103000                    
       1.546453       4.109409      -4.307125      -0.200000                    
      -4.065260       1.882116       1.640738      -0.200000                    
      -4.391449       0.575697       2.839811      -0.006000                    
      -4.356035      -0.392755       2.341015       0.103000                    
      -3.637415       0.607431       3.626195       0.103000                    
      -5.777239       0.781865       3.454240      -0.006000                    
      -5.812653       1.750326       3.953031       0.103000                    
      -6.531273       0.750139       2.667850       0.103000                    
      -6.103428      -0.524554       4.653313      -0.200000                    
      -3.137036      -3.254199       4.018847      -0.200000                    
      -1.429735      -2.880181       3.575870      -0.006000                    
      -0.755872      -3.484730       4.182803       0.103000                    
      -1.270031      -3.105261       2.521480       0.103000                    
      -1.150595      -1.397341       3.828153      -0.006000                    
      -1.824472      -0.792791       3.221223       0.103000                    
      -1.310305      -1.172264       4.882555       0.103000                    
       0.556698      -1.023327       3.385172      -0.200000                    
      -1.647861       5.385663      -2.055133      -0.200000                    
      -0.504989       6.634873      -2.674985      -0.006000                    
       0.155851       6.954772      -1.869433       0.103000                    
       0.088430       6.214025      -3.486541       0.103000                    
      -1.295982       7.837538      -3.192909      -0.006000                    
      -1.956821       7.517638      -3.998461       0.103000                    
      -1.889400       8.258387      -2.381354       0.103000                    
      -0.153110       9.086748      -3.812762      -0.200000                    
      -5.535352      -0.263181      -0.492184      -0.200000                    
      -5.596651      -1.977013      -1.048847      -0.006000                    
      -6.286015      -2.062034      -1.888776       0.103000                    
      -4.601686      -2.293492      -1.361628       0.103000                    
      -6.077904      -2.868554       0.097391      -0.006000                    
      -5.388532      -2.783530       0.937325       0.103000                    
      -7.072868      -2.552076       0.410172       0.103000                    
      -6.139202      -4.582378      -0.459277      -0.200000                    
       3.148621      -2.546743      -2.857452      -0.200000                    
       4.477256      -3.311000      -1.907978      -0.006000                    
       4.394094      -3.014458      -0.862472       0.103000                    
       4.402071      -4.395584      -1.985349       0.103000                    
       5.828037      -2.853246      -2.461374      -0.006000                    
       5.911198      -3.149788      -3.506879       0.103000                    
       5.903213      -1.768665      -2.384006       0.103000                    
       7.156671      -3.617503      -1.511899      -0.200000                    
       3.738491       5.754819       2.629831      -0.200000                    
       5.041905       5.467870       3.842102      -0.006000                    
       5.355758       4.425011       3.798567       0.103000                    
       5.892226       6.112945       3.621298       0.103000                    
       4.513771       5.782824       5.242914      -0.006000                    
       4.199924       6.825678       5.286443       0.103000                    
       3.663455       5.137744       5.463712       0.103000                    
       5.817194       5.495878       6.455190      -0.200000                    
       3.276299       6.973391      -1.845091      -0.200000                    
       3.564816       8.641198      -1.223718      -0.006000                    
       4.443435       8.641980      -0.578744       0.103000                    
       3.728572       9.318253      -2.062017       0.103000                    
       2.345805       9.105570      -0.424480      -0.006000                    
       1.467185       9.104788      -1.069454       0.103000                    
       2.182058       8.428528       0.413817       0.103000                    
       2.634322      10.773385       0.196888      -0.200000                    
      -5.028208       7.073548      -1.306753      -0.200000                    
      -5.542999       5.345587      -1.297338      -0.006000                    
      -6.331770       5.197197      -2.034726       0.103000                    
      -4.691487       4.711199      -1.543157       0.103000                    
      -6.068265       4.977564       0.091528      -0.006000                    
      -5.279499       5.125959       0.828923       0.103000                    
      -6.919782       5.611949       0.337360       0.103000                    
      -6.583062       3.249608       0.100950      -0.200000                    
      10.005955      -0.842574      -2.976257      -0.200000                    
      10.019349      -0.379117      -1.233870      -0.006000                    
       9.993416      -1.278203      -0.618280       0.103000                    
      10.925508       0.185490      -1.014766       0.103000                    
       8.794410       0.484239      -0.926418      -0.006000                    
       8.820338       1.383330      -1.542001       0.103000                    
       7.888247      -0.080362      -1.145515       0.103000                    
       8.807790       0.947698       0.815972      -0.200000                    
      -1.252094       4.475157       5.037242      -0.200000                    
      -2.552392       3.325293       5.525089      -0.006000                    
      -3.123246       3.750841       6.350317       0.103000                    
      -3.215364       3.145866       4.678829       0.103000                    
      -1.923737       2.003120       5.968968      -0.006000                    
      -1.352882       1.577572       5.143740       0.103000                    
      -1.260765       2.182547       6.815228       0.103000                    
      -3.224040       0.853261       6.456821      -0.200000                    
       1.046554      -5.405910      -5.654721      -0.200000                    
       2.242464      -6.086228      -4.489420      -0.006000                    
       3.233954      -6.082153      -4.942033       0.103000                    
       2.253610      -5.479477      -3.584077       0.103000                    
       1.849888      -7.521884      -4.135682      -0.006000                    
       0.858398      -7.525960      -3.683069       0.103000                    
       1.838742      -8.128628      -5.041031       0.103000                    
       3.045798      -8.202193      -2.970387      -0.200000                    
      -1.100028       9.356474       0.007084      -0.200000                    
      -2.422152      10.526304       0.373717      -0.006000                    
      -3.221963      10.014923       0.909203       0.103000                    
      -2.031072      11.335366       0.990510       0.103000                    
      -2.970894      11.101673      -0.933239      -0.006000                    
      -2.171091      11.613051      -1.468730       0.103000                    
      -3.361982      10.292616      -1.550042       0.103000                    
      -4.293018      12.271503      -0.566606      -0.200000                    
      -9.058141      -0.022526      -1.461232      -0.200000                    
      -8.993981       1.682300      -2.044696      -0.006000                    
      -9.939234       1.938733      -2.522882       0.103000                    
      -8.821011       2.349315      -1.200259       0.103000                    
      -7.854806       1.833097      -3.054622      -0.006000                    
      -6.909554       1.576664      -2.576436       0.103000                    
      -8.027778       1.166082      -3.899059       0.103000                    
      -7.790655       3.537920      -3.638091      -0.200000                    
       8.306168      -2.571454       3.028632      -0.200000                    
       6.765409      -3.474611       3.276254      -0.006000                    
       6.048468      -2.835945       3.792049       0.103000                    
       6.358441      -3.771205       2.309619       0.103000                    
       7.035429      -4.722036       4.119688      -0.006000                    
       7.752370      -5.360703       3.603893       0.103000                    
       7.442398      -4.425443       5.086323       0.103000                    
       5.494671      -5.625202       4.367316      -0.200000                    
      -5.850923     -10.186835       2.475658      -0.200000                    
      -4.534442      -9.134560       1.834892      -0.006000                    
      -3.569714      -9.608275       2.016021       0.103000                    
      -4.673237      -8.990369       0.763492       0.103000                    
      -4.576481      -7.778137       2.541121      -0.006000                    
      -5.541217      -7.304424       2.359989       0.103000                    
      -4.437681      -7.922332       3.612515       0.103000                    
      -3.259995      -6.725866       1.900349      -0.200000                    
       2.395039      -1.034876      -8.417879      -0.200000                    
       3.870975      -1.632727      -7.572180      -0.006000                    
       3.682094      -2.628503      -7.171333       0.103000                    
       4.701377      -1.675970      -8.276835       0.103000                    
       4.223395      -0.681162      -6.427341      -0.006000                    
       4.412271       0.314626      -6.828188       0.103000                    
       3.392989      -0.637907      -5.722685       0.103000                    
       5.699326      -1.279000      -5.581642      -0.200000                    
      -3.036496       3.088969      -6.869695      -0.200000                    
      -3.795279       4.348025      -5.825700      -0.006000                    
      -4.003454       3.927505      -4.841944       0.103000                    
      -3.115197       5.193530      -5.723159       0.103000                    
      -5.102510       4.820353      -6.464781      -0.006000                    
      -4.894350       5.240866      -7.448529       0.103000                    
      -5.782607       3.974849      -6.567320       0.103000                    
      -5.861302       6.079397      -5.420784      -0.200000                    
       8.350225       4.745005       2.749895      -0.200000                    
      10.147602       4.856075       2.839279      -0.006000                    
      10.434336       5.855788       3.165364       0.103000                    
      10.522406       4.120195       3.550567       0.103000                    
      10.744894       4.579844       1.458230      -0.006000                    
      10.458165       3.580133       1.132150       0.103000                    
      10.370083       5.315721       0.746954       0.103000                    
      12.542272       4.690914       1.547632      -0.200000                    
       7.663494       1.966559      -3.946769      -0.200000                    
       7.745859       1.576390      -5.705132      -0.006000                    
       6.741148       1.387636      -6.083127       0.103000                    
       8.185156       2.415984      -6.243688       0.103000                    
       8.609939       0.330872      -5.911164      -0.006000                    
       9.614655       0.519620      -5.533175       0.103000                    
       8.170648      -0.508728      -5.372615       0.103000                    
       8.692304      -0.059297      -7.669527      -0.200000                    
      -1.585647       9.197874       7.697055      -0.200000                    
      -0.627675       8.685390       6.258120      -0.006000                    
      -0.830670       7.636794       6.040874       0.103000                    
      -0.907215       9.295364       5.399200       0.103000                    
       0.863595       8.866210       6.547599      -0.006000                    
       1.066590       9.914806       6.764845       0.103000                    
       1.143141       8.256240       7.406507       0.103000                    
       1.821568       8.353734       5.108657      -0.200000                    
       2.058438       5.504423      -8.779216      -0.200000                    
       3.629487       4.845749      -8.188654      -0.006000                    
       3.529966       3.775634      -8.007384       0.103000                    
       4.400814       5.017140      -8.939402       0.103000                    
       4.020192       5.548681      -6.887248      -0.006000                    
       4.119721       6.618800      -7.068513       0.103000                    
       3.248874       5.377294      -6.136495       0.103000                    
       5.591236       4.890013      -6.296679      -0.200000                    
      -4.456364      -5.543687      -5.589796      -0.200000                    
      -3.614222      -7.117961      -5.841553      -0.006000                    
      -4.177186      -7.913560      -5.353628       0.103000                    
      -3.542619      -7.325321      -6.909186       0.103000                    
      -2.208951      -7.046263      -5.241185      -0.006000                    
      -1.645995      -6.250668      -5.729115       0.103000                    
      -2.280548      -6.838909      -4.173558       0.103000                    
      -1.366809      -8.620537      -5.492941      -0.200000                    
      -0.826899      -3.195582      -8.402096      -0.200000                    
      -1.853870      -2.358183      -7.179440      -0.006000                    
      -2.395897      -3.098685      -6.591385       0.103000                    
      -1.222140      -1.762394      -6.520734       0.103000                    
      -2.852014      -1.443768      -7.892136      -0.006000                    
      -2.309988      -0.703274      -8.480186       0.103000                    
      -3.483740      -2.039570      -8.550842       0.103000                    
      -3.878985      -0.606368      -6.669479      -0.200000                    
       6.098472     -10.771218       1.218802      -0.200000                    
       6.309642      -9.079940       0.630720      -0.006000                    
       7.325109      -8.745450       0.842586       0.103000                    
       6.131755      -9.043822      -0.443980       0.103000                    
       5.312567      -8.164117       1.343116      -0.006000                    
       4.297101      -8.498608       1.131250       0.103000                    
       5.490454      -8.200235       2.417816       0.103000                    
       5.523736      -6.472848       0.755040      -0.200000                    
      -9.849789      -4.563072      -2.163309      -0.200000                    
      -8.667850      -3.502052      -3.016661      -0.006000                    
      -8.162182      -2.864383      -2.291650       0.103000                    
      -7.932712      -4.118801      -3.533500       0.103000                    
      -9.406846      -2.630351      -4.033726      -0.006000                    
      -9.912517      -3.268019      -4.758738       0.103000                    
     -10.141977      -2.013590      -3.516889       0.103000                    
      -8.224899      -1.569327      -4.887074      -0.200000                    
      -4.448363      -6.925253       8.375178      -0.200000                    
      -2.815621      -7.024817       7.616829      -0.006000                    
      -2.055799      -7.083613       8.396034       0.103000                    
      -2.760575      -7.913037       6.987579       0.103000                    
      -2.573493      -5.779283       6.762200      -0.006000                    
      -3.333324      -5.720490       5.982991       0.103000                    
      -2.628548      -4.891065       7.391446       0.103000                    
      -0.940752      -5.878847       6.003851      -0.200000                    
       6.054954       0.288311       8.241098      -0.200000                    
       5.142402      -1.130998       7.605669      -0.006000                    
       5.459684      -1.339459       6.584019       0.103000                    
       5.340124      -2.000555       8.232365       0.103000                    
       3.644143      -0.822244       7.620833      -0.006000                    
       3.326861      -0.613782       8.642483       0.103000                    
       3.446416       0.047326       6.994139       0.103000                    
       2.731592      -2.241552       6.985403      -0.200000                    
      -0.490984     -10.076745       2.579715      -0.200000                    
      -0.172409     -10.644506       0.898309      -0.006000                    
      -0.352014     -11.717768       0.836814       0.103000                    
      -0.835819     -10.124674       0.207199       0.103000                    
       1.282134     -10.349396       0.527422      -0.006000                    
       1.461746      -9.276139       0.588910       0.103000                    
       1.945545     -10.869228       1.218532       0.103000                    
       1.600718     -10.917153      -1.153980      -0.200000                    
       7.242461       9.019475       4.269948      -0.200000                    
       5.624886       9.753928       4.577881      -0.006000                    
       5.374834      10.436293       3.765599       0.103000                    
       4.873254       8.966750       4.635807       0.103000                    
       5.658003      10.524844       5.898831      -0.006000                    
       5.908055       9.842480       6.711113       0.103000                    
       6.409641      11.312016       5.840898       0.103000                    
       4.040428      11.259290       6.206771      -0.200000                    
      -8.135472      -4.413157       5.406244      -0.200000                    
      -7.303693      -3.405512       6.648690      -0.006000                    
      -7.313347      -2.361434       6.336003       0.103000                    
      -7.821309      -3.504094       7.602781       0.103000                    
      -5.856763      -3.877691       6.802961      -0.006000                    
      -5.847095      -4.921762       7.115641       0.103000                    
      -5.339148      -3.779101       5.848865       0.103000                    
      -5.024975      -2.870034       8.045406      -0.200000                    
       7.892394       0.783817       5.580107      -0.200000                    
       8.220454       2.526310       5.907145      -0.006000                    
       8.793131       2.949547       5.082036       0.103000                    
       7.276271       3.061596       6.006640       0.103000                    
       9.020842       2.659834       7.204037      -0.006000                    
       8.448163       2.236590       8.029135       0.103000                    
       9.965022       2.124540       7.104531       0.103000                    
       9.348904       4.402327       7.531075      -0.200000                    
      -9.506997       6.870852       2.631292      -0.200000                    
      -8.436285       5.521721       3.164459      -0.006000                    
      -7.475851       5.596570       2.654619       0.103000                    
      -8.281929       5.584016       4.241615       0.103000                    
      -9.092666       4.183380       2.820466      -0.006000                    
     -10.053102       4.108523       3.330294       0.103000                    
      -9.247020       4.121084       1.743309       0.103000                    
      -8.021951       2.834256       3.353627      -0.200000                    
      -5.253905      -7.261747      -2.477036      -0.200000                    
      -6.835312      -6.765237      -3.186651      -0.006000                    
      -7.417902      -6.229506      -2.437287       0.103000                    
      -6.661023      -6.115666      -4.044312       0.103000                    
      -7.604841      -8.008305      -3.637129      -0.006000                    
      -7.022259      -8.544032      -4.386487       0.103000                    
      -7.779128      -8.657867      -2.779456       0.103000                    
      -9.186246      -7.511787      -4.346732      -0.200000                    
       2.079497       4.242995       7.500917      -0.200000                    
       3.243025       3.284940       8.490520      -0.006000                    
       3.773145       2.581472       7.848606       0.103000                    
       3.959257       3.957682       8.962086       0.103000                    
       2.480617       2.514525       9.570119      -0.006000                    
       1.950488       3.217992      10.212029       0.103000                    
       1.764377       1.841781       9.098549       0.103000                    
       3.644132       1.556473      10.559725      -0.200000                    
      -5.786114       4.415783       5.310165      -0.200000                    
      -6.261005       3.764187       6.922846      -0.006000                    
      -5.397372       3.295180       7.394146       0.103000                    
      -6.621251       4.577989       7.552059       0.103000                    
      -7.371294       2.726601       6.746778      -0.006000                    
      -8.234919       3.195611       6.275483       0.103000                    
      -7.011053       1.912805       6.117574       0.103000                    
      -7.846177       2.075008       8.359464      -0.200000                    
      -0.543651      11.247411       3.447494      -0.200000                    
       0.697626      12.329597       4.181700      -0.006000                    
       0.270401      13.320258       4.336674       0.103000                    
       1.018328      11.918211       5.138708       0.103000                    
       1.901351      12.435038       3.243472      -0.006000                    
       2.328584      11.444372       3.088509       0.103000                    
       1.580643      12.846422       2.286478       0.103000                    
       3.142628      13.517217       3.977685      -0.200000                    
       2.756526      -8.145340       4.168772      -0.200000                    