%nprocshared=4                                                                       
%mem=8GB                                                                             
#P pop=chelpg cam-b3lyp/gen scf=qc int=ultrafine charge td(nstates=10)               
                                                                                     
pNA CAM-B3LYP def2-TZVPD Single point - solvent def2-SV(P)                           
                                                                                     
0 1                                                                                  
 C       1.389235       0.000000      -0.000000                                 
 C       0.000000       0.000000      -0.000000                                 
 C      -0.711164       1.193419       0.000000                                 
 C      -0.034074       2.386367       0.000141                                 
 C       1.370482       2.412065       0.000933                                 
 C       2.067428       1.192342       0.000144                                 
 H       1.924301      -0.937208       0.000967                                 
 H      -1.790186       1.173300       0.000962                                 
 H      -0.583208       3.318526      -0.000772                                 
 H       3.149318       1.197759      -0.000767                                 
 N      -0.711160      -1.251627       0.001756                                 
 O      -1.932441      -1.229701       0.002542                                 
 O      -0.067142      -2.289538       0.002483                                 
 N       2.040236       3.590780      -0.024683                                 
 H       1.546357       4.451509       0.132529                                 
 H       3.032458       3.607145       0.132525                                 
Cl       1.258623      -2.970667      -4.129209                                 
 C       2.081162      -3.049669      -2.526693                                 
 H       1.550590      -2.418221      -1.814164                                 
 H       2.082737      -4.079297      -2.169188                                 
 C       3.522689      -2.557503      -2.668614                                 
 H       4.053258      -3.188937      -3.381141                                 
 H       3.521111      -1.527861      -3.026118                                 
Cl       4.345236      -2.636503      -1.066093                                 
Cl      -3.488674       3.633839       1.572575                                 
 C      -4.029096       1.971867       2.016074                                 
 H      -3.946155       1.318661       1.147518                                 
 H      -3.401917       1.588217       2.820717                                 
 C      -5.485394       2.016665       2.482547                                 
 H      -5.568342       2.669867       3.351114                                 
 H      -6.112579       2.400311       1.677915                                 
Cl      -6.025815       0.354691       2.926063                                 
Cl       3.026216      -2.542032       4.003185                                 
 C       3.906595      -1.405954       2.914567                                 
 H       4.938690      -1.737411       2.801183                                 
 H       3.421294      -1.387853       1.938811                                 
 C       3.886300      -0.001062       3.519734                                 
 H       2.854194       0.330386       3.633117                                 
 H       4.371603      -0.019176       4.495488                                 
Cl       4.766679       1.135016       2.431116                                 
Cl      -2.494612       7.706827       4.024518                                 
 C      -1.697564       6.776546       2.701575                                 
 H      -1.534505       5.749126       3.026766                                 
 H      -2.335890       6.781285       1.818130                                 
 C      -0.353167       7.422835       2.362113                                 
 H      -0.516218       8.450257       2.036910                                 
 H       0.285165       7.418090       3.245550                                 
Cl       0.443887       6.492549       1.039162                                 
Cl       5.000803       0.776626      -2.697783                                 
 C       4.859834       2.573146      -2.758104                                 
 H       4.925133       2.977082      -1.747895                                 
 H       5.667581       2.981013      -3.365667                                 
 C       3.513952       2.958618      -3.374840                                 
 H       3.448655       2.554689      -4.385053                                 
 H       2.706196       2.550749      -2.767282                                 
Cl       3.372983       4.755138      -3.435161                                 
                                                                                
      -3.565639      -5.654604       0.463894      -0.200000                    
      -2.419277      -5.704823      -0.926862      -0.006000                    
      -1.395771      -5.647409      -0.556652       0.103000                    
      -2.555301      -6.636011      -1.476711       0.103000                    
      -2.692199      -4.520252      -1.855691      -0.006000                    
      -3.715705      -4.577664      -2.225901       0.103000                    
      -2.556172      -3.589077      -1.305843       0.103000                    
      -1.545832      -4.570475      -3.246453      -0.200000                    
      -5.325729      -0.252140      -1.352735      -0.200000                    
      -5.189402      -2.041961      -1.522415      -0.006000                    
      -4.955299      -2.292312      -2.557047       0.103000                    
      -4.396575      -2.409574      -0.871071       0.103000                    
      -6.515924      -2.694046      -1.128162      -0.006000                    
      -6.750027      -2.443695      -0.093530       0.103000                    
      -7.308756      -2.326428      -1.779499       0.103000                    
      -6.379596      -4.483867      -1.297843      -0.200000                    
      -3.361825      -2.538694       4.220759      -0.200000                    
      -1.689775      -2.018502       3.791066      -0.006000                    
      -0.973952      -2.523623       4.439432       0.103000                    
      -1.484415      -2.276473       2.752216       0.103000                    
      -1.563614      -0.504968       3.974578      -0.006000                    
      -2.279429       0.000157       3.326201       0.103000                    
      -1.768967      -0.246993       5.013416       0.103000                    
       0.108441       0.015219       3.544878      -0.200000                    
      -1.892879       2.989633      -4.815685      -0.200000                    
      -1.463558       1.311359      -4.315727      -0.006000                    
      -1.075714       0.764067      -5.174759       0.103000                    
      -0.704161       1.347680      -3.534720       0.103000                    
      -2.710263       0.603762      -3.781480      -0.006000                    
      -3.098112       1.151059      -2.922441       0.103000                    
      -3.469665       0.567447      -4.562480       0.103000                    
      -2.280942      -1.074512      -3.281522      -0.200000                    
      -3.124166       8.053846      -0.999656      -0.200000                    
      -3.673829       6.377329      -1.371273      -0.006000                    
      -3.705461       6.236154      -2.451553       0.103000                    
      -2.979893       5.661252      -0.931228       0.103000                    
      -5.070776       6.157566      -0.787713      -0.006000                    
      -5.039144       6.298741       0.292567       0.103000                    
      -5.764706       6.873637      -1.227765       0.103000                    
      -5.620439       4.481049      -1.159331      -0.200000                    
       3.142989       5.356393       3.172637      -0.200000                    
       4.031799       4.599213       4.546510      -0.006000                    
       4.873682       4.023708       4.161830       0.103000                    
       4.398851       5.377676       5.215231       0.103000                    
       3.088699       3.671089       5.314326      -0.006000                    
       2.246818       4.246603       5.699002       0.103000                    
       2.721657       2.892636       4.645607       0.103000                    
       3.977517       2.913911       6.688205      -0.200000                    
       0.876523      -5.447505       5.373797      -0.200000                    
       0.922581      -6.354164       3.815980      -0.006000                    
       1.744245      -7.069966       3.836073       0.103000                    
      -0.018923      -6.885238       3.676432       0.103000                    
       1.129976      -5.372875       2.660797      -0.006000                    
       0.308295      -4.657078       2.640711       0.103000                    
       2.071463      -4.841805       2.800352       0.103000                    
       1.176020      -6.279530       1.102981      -0.200000                    
      10.506427       2.702660      -0.112607      -0.200000                    
       8.771652       2.609574       0.369872      -0.006000                    
       8.196997       2.139926      -0.428333       0.103000                    
       8.678864       2.018498       1.280907       0.103000                    
       8.235851       4.020292       0.621127      -0.006000                    
       8.810501       4.489945       1.419339       0.103000                    
       8.328633       4.611365      -0.289896       0.103000                    
       6.501068       3.927204       1.103601      -0.200000                    
      -0.269998       6.035918      -2.756552      -0.200000                    
       0.884234       7.343451      -3.213722      -0.006000                    
       1.845666       7.164345      -2.732535       0.103000                    
       1.015046       7.351009      -4.295719       0.103000                    
       0.330467       8.694771      -2.758101      -0.006000                    
      -0.630965       8.873878      -3.239288       0.103000                    
       0.199655       8.687213      -1.676104       0.103000                    
       1.484699      10.002305      -3.215271      -0.200000                    
       4.482406       8.436089      -1.521184      -0.200000                    
       3.296199       8.807714      -0.215127      -0.006000                    
       2.990197       9.851266      -0.288044       0.103000                    
       2.423038       8.164399      -0.323194       0.103000                    
       3.944973       8.561180       1.148218      -0.006000                    
       4.250979       7.517623       1.221128       0.103000                    
       4.818136       9.204505       1.256279       0.103000                    
       2.758774       8.932809       2.454263      -0.200000                    
      -0.695684       3.689137       4.465822      -0.200000                    
      -2.283427       3.853583       5.304274      -0.006000                    
      -2.232663       4.672632       6.021601       0.103000                    
      -3.062315       4.060657       4.570559       0.103000                    
      -2.609114       2.552078       6.039376      -0.006000                    
      -2.659882       1.733034       5.322055       0.103000                    
      -1.830230       2.345009       6.773098       0.103000                    
      -4.196857       2.716525       6.877828      -0.200000                    
       8.863402      -2.867770      -2.834114      -0.200000                    
       8.183470      -2.605708      -1.184903      -0.006000                    
       7.236773      -3.137991      -1.093132       0.103000                    
       8.884604      -2.979648      -0.438931       0.103000                    
       7.950870      -1.110343      -0.960928      -0.006000                    
       8.897567      -0.578060      -1.052699       0.103000                    
       7.249735      -0.736404      -1.706900       0.103000                    
       7.270937      -0.848281       0.688283      -0.200000                    
       6.839726      -4.570272       2.230766      -0.200000                    
       6.029785      -6.115486       2.686011      -0.006000                    
       6.769796      -6.914459       2.730638       0.103000                    
       5.555872      -6.004018       3.661185       0.103000                    
       4.968242      -6.462150       1.640410      -0.006000                    
       4.228230      -5.663177       1.595783       0.103000                    
       5.442155      -6.573618       0.665236       0.103000                    
       4.158290      -8.007373       2.095654      -0.200000                    
      11.197867       8.002613       0.273740      -0.200000                    
       9.837901       7.355093       1.264771      -0.006000                    
       9.764434       6.277191       1.121132       0.103000                    
      10.020760       7.569962       2.317552       0.103000                    
       8.529348       8.017346       0.829504      -0.006000                    
       8.602816       9.095249       0.973143       0.103000                    
       8.346492       7.802487      -0.223282       0.103000                    
       7.169381       7.369827       1.820534      -0.200000                    
      -0.562260      -6.244701      -7.253853      -0.200000                    
       0.573239      -6.281636      -5.853783      -0.006000                    
       1.599910      -6.238012      -6.217082       0.103000                    
       0.380061      -5.426431      -5.206304       0.103000                    
       0.366950      -7.575445      -5.063915      -0.006000                    
      -0.659720      -7.619069      -4.700617       0.103000                    
       0.560136      -8.430648      -5.711389       0.103000                    
       1.502456      -7.612386      -3.663835      -0.200000                    
       1.227536       1.399649      -6.477469      -0.200000                    
       2.358569       0.023316      -6.755802      -0.006000                    
       3.175440       0.072726      -6.035936       0.103000                    
       1.822802      -0.917960      -6.633673       0.103000                    
       2.924251       0.107091      -8.174728      -0.006000                    
       2.107382       0.057688      -8.894599       0.103000                    
       3.460015       1.048381      -8.296854       0.103000                    
       4.055286      -1.269235      -8.453065      -0.200000                    
       8.156611       1.198509      -3.647846      -0.200000                    
       7.719034       0.792769      -5.349241      -0.006000                    
       6.868024       0.111807      -5.353274       0.103000                    
       7.457106       1.705197      -5.884775       0.103000                    
       8.910563       0.123048      -6.036356      -0.006000                    
       9.761580       0.804004      -6.032330       0.103000                    
       9.172492      -0.789381      -5.500823       0.103000                    
       8.472991      -0.282697      -7.737758      -0.200000                    
      -5.858774      -6.350018       7.075697      -0.200000                    
      -4.362773      -6.585948       6.097360      -0.006000                    
      -3.540508      -6.032967       6.551288       0.103000                    
      -4.113349      -7.646425       6.064480       0.103000                    
      -4.597452      -6.073524       4.675134      -0.006000                    
      -5.419714      -6.626498       4.221218       0.103000                    
      -4.846875      -5.013047       4.708013       0.103000                    
      -3.101456      -6.309448       3.696803      -0.200000                    
       0.207422      -1.886783      -9.146963      -0.200000                    
      -1.413272      -2.193035      -8.418678      -0.006000                    
      -2.040522      -1.310449      -8.543298       0.103000                    
      -1.880012      -3.043781      -8.914998       0.103000                    
      -1.253150      -2.497858      -6.928101      -0.006000                    
      -0.625900      -3.380444      -6.803482       0.103000                    
      -0.786418      -1.647113      -6.431787       0.103000                    
      -2.873839      -2.804115      -6.199823      -0.200000                    
       6.720840      -1.562578       6.428952      -0.200000                    
       6.579741       0.230976       6.547738      -0.006000                    
       6.365561       0.644871       5.562488       0.103000                    
       5.772182       0.487544       7.233254       0.103000                    
       7.894992       0.812492       7.069607      -0.006000                    
       8.109172       0.398597       8.054857       0.103000                    
       8.702550       0.555924       6.384091       0.103000                    
       7.753893       2.606046       7.188393      -0.200000                    
      -0.070280      10.707003       0.181772      -0.200000                    
      -1.260708      12.058058       0.273678      -0.006000                    
      -2.000462      11.839088       1.043602       0.103000                    
      -0.741524      12.983885       0.521189       0.103000                    
      -1.961877      12.212668      -1.077152      -0.006000                    
      -1.222128      12.431644      -1.847069       0.103000                    
      -2.481060      11.286842      -1.324663       0.103000                    
      -3.152305      13.563725      -0.985245      -0.200000                    
      -1.114333       6.674339      -8.202214      -0.200000                    
      -2.522982       7.174793      -7.194180      -0.006000                    
      -2.169223       7.727359      -6.323857       0.103000                    
      -3.184601       7.809496      -7.783522       0.103000                    
      -3.286862       5.932254      -6.732706      -0.006000                    
      -3.640618       5.379675      -7.603032       0.103000                    
      -2.625245       5.297543      -6.143360       0.103000                    
      -4.695513       6.432700      -5.724668      -0.200000                    
     -10.411135       4.583370      -2.374121      -0.200000                    
      -9.084710       3.891961      -3.380859      -0.006000                    
      -9.432911       3.768955      -4.406319       0.103000                    
      -8.228119       4.565712      -3.366132       0.103000                    
      -8.672285       2.531259      -2.816250      -0.006000                    
      -8.324089       2.654274      -1.790801       0.103000                    
      -9.528876       1.857508      -2.830976       0.103000                    
      -7.345859       1.839850      -3.822988      -0.200000                    
       4.027418      -3.380647       9.048754      -0.200000                    
       3.297735      -2.469655       7.674493      -0.006000                    
       4.031483      -1.772600       7.269975       0.103000                    
       2.992693      -3.168827       6.895976       0.103000                    
       2.075943      -1.693106       8.168995      -0.006000                    
       1.342188      -2.390162       8.573507       0.103000                    
       2.380975      -0.993943       8.947512       0.103000                    
       1.346252      -0.782115       6.794729      -0.200000                    
      -4.889259      -5.147251      -4.740374      -0.200000                    
      -4.273695      -6.420942      -5.858278      -0.006000                    
      -5.079256      -6.748048      -6.515584       0.103000                    
      -3.457827      -6.015941      -6.456855       0.103000                    
      -3.765408      -7.612016      -5.043799      -0.006000                    
      -2.959847      -7.284909      -4.386491       0.103000                    
      -4.581275      -8.017016      -4.445221       0.103000                    
      -3.149849      -8.885701      -6.161695      -0.200000                    
       6.240713       7.183670       4.993357      -0.200000                    
       5.068393       8.381433       5.658060      -0.006000                    
       5.160461       9.321053       5.113467       0.103000                    
       4.054493       7.996377       5.549899       0.103000                    
       5.367481       8.619743       7.139303      -0.006000                    
       5.275406       7.680124       7.683893       0.103000                    
       6.381372       9.004790       7.247466       0.103000                    
       4.195153       9.817497       7.804008      -0.200000                    
     -10.011102      -1.511897       3.263364      -0.200000                    
      -8.707006      -2.563837       3.929449      -0.006000                    
      -9.113268      -3.550813       4.150321       0.103000                    
      -7.904977      -2.656340       3.197245       0.103000                    
      -8.155360      -1.941064       5.213280      -0.006000                    
      -7.749097      -0.954088       4.992407       0.103000                    
      -8.957394      -1.848555       5.945490       0.103000                    
      -6.851262      -2.992995       5.879359      -0.200000                    
       4.585116       7.602283      -7.901255      -0.200000                    
       4.313241       5.862753      -7.512771      -0.006000                    
       3.682118       5.782179      -6.627827       0.103000                    
       3.822770       5.374521      -8.354796       0.103000                    
       5.657650       5.184327      -7.243129      -0.006000                    
       6.288767       5.264906      -8.128066       0.103000                    
       6.148115       5.672565      -6.401097       0.103000                    
       5.385770       3.444803      -6.854639      -0.200000                    
      -2.314783     -10.342283       0.454718      -0.200000                    
      -1.501210      -9.831513      -1.071114      -0.006000                    
      -2.073984      -9.030308      -1.537935       0.103000                    
      -0.495841      -9.476028      -0.845676       0.103000                    
      -1.417884     -11.022321      -2.027887      -0.006000                    
      -0.845110     -11.823524      -1.561066       0.103000                    
      -2.423260     -11.377808      -2.253314       0.103000                    
      -0.604313     -10.511559      -3.553715      -0.200000                    
       4.979534      -5.863909      -4.361052      -0.200000                    
       5.076911      -7.600157      -3.884720      -0.006000                    
       4.074652      -8.027841      -3.862512       0.103000                    
       5.687355      -8.141712      -4.607221       0.103000                    
       5.709930      -7.713356      -2.496594      -0.006000                    
       6.712193      -7.285666      -2.518790       0.103000                    
       5.099482      -7.171796      -1.774086       0.103000                    
       5.807302      -9.449599      -2.020255      -0.200000                    
      -0.587606       8.685589       9.843431      -0.200000                    
      -0.491906       8.485021       8.054159      -0.006000                    
      -0.480116       7.423442       7.807420       0.103000                    
      -1.357088       8.956893       7.588613       0.103000                    
       0.787974       9.142888       7.535028      -0.006000                    
       0.776185      10.204467       7.781768       0.103000                    
       1.653157       8.671016       8.000574       0.103000                    
       0.883676       8.942320       5.745757      -0.200000                    
      -2.951319      -1.078830       7.899698      -0.200000                    
      -1.963030      -2.527573       8.318351      -0.006000                    
      -0.990189      -2.456942       7.832026       0.103000                    
      -1.826852      -2.574961       9.398693       0.103000                    
      -2.681370      -3.790555       7.839585      -0.006000                    
      -3.654220      -3.861187       8.325905       0.103000                    
      -2.817551      -3.743175       6.759248       0.103000                    
      -1.693093      -5.239308       8.258238      -0.200000                    
       9.173206      -0.251872       3.909978      -0.200000                    
       9.763614      -1.949527       4.052422      -0.006000                    
       8.917253      -2.634322       4.000961       0.103000                    
      10.454668      -2.163738       3.237259       0.103000                    
      10.483128      -2.128597       5.390564      -0.006000                    
      11.329482      -1.443796       5.442031       0.103000                    
       9.792060      -1.914381       6.205728       0.103000                    
      11.073530      -3.826246       5.533014      -0.200000                    
      -6.651870      -7.904131      -1.533269      -0.200000                    
      -6.656391      -8.044633       0.264295      -0.006000                    
      -6.330721      -7.101788       0.703475       0.103000                    
      -7.664157      -8.277061       0.608274       0.103000                    
      -5.702209      -9.161761       0.690871      -0.006000                    
      -6.027875     -10.104622       0.251688       0.103000                    
      -4.694432      -8.929346       0.346894       0.103000                    
      -5.706717      -9.302267       2.488432      -0.200000                    
      -8.992384       7.597020       1.952667      -0.200000                    
      -8.319629       5.937478       1.742481      -0.006000                    
      -7.687017       5.911284       0.855305       0.103000                    
      -7.728427       5.671177       2.618569       0.103000                    
      -9.467111       4.938943       1.579551      -0.006000                    
     -10.099723       4.965137       2.466726       0.103000                    
     -10.058312       5.205244       0.703462       0.103000                    
      -8.794355       3.279400       1.369364      -0.200000                    
      11.992421       2.684207      -4.749552      -0.200000                    
      10.740326       3.405823      -3.671398      -0.006000                    
       9.793763       3.472900      -4.207545       0.103000                    
      10.614777       2.778252      -2.789160       0.103000                    
      11.182792       4.805871      -3.241855      -0.006000                    
      12.129353       4.738786      -2.705704       0.103000                    
      11.308339       5.433434      -4.124089       0.103000                    
       9.930702       5.527483      -2.163708      -0.200000                    
      -7.513258      -1.092830      -5.060610      -0.200000                    
      -8.365124      -0.011247      -6.224858      -0.006000                    
      -9.083151       0.607979      -5.687305       0.103000                    
      -7.638190       0.627298      -6.726608       0.103000                    
      -9.101104      -0.859326      -7.263861      -0.006000                    
      -8.383076      -1.478551      -7.801413       0.103000                    
      -9.828038      -1.497871      -6.762111       0.103000                    
      -9.952969       0.222257      -8.428108      -0.200000                    
       9.744531       4.739273       3.717667      -0.200000                    
      10.920988       3.596815       4.467083      -0.006000                    
      11.619338       4.152552       5.092732       0.103000                    
      10.384263       2.870852       5.077664       0.103000                    
      11.693109       2.865694       3.367243      -0.006000                    
      10.994762       2.309943       2.741592       0.103000                    
      12.229843       3.591659       2.756669       0.103000                    
      12.869574       1.723230       4.116654      -0.200000                    
      -6.797426       5.410611       6.126927      -0.200000                    