%nprocshared=4                                                                       
%mem=8GB                                                                             
#P pop=chelpg cam-b3lyp/gen scf=qc int=ultrafine charge td(nstates=10)               
                                                                                     
pNA CAM-B3LYP def2-TZVPD Single point - solvent def2-SV(P)                           
                                                                                     
0 1                                                                                  
 C       1.389235       0.000000      -0.000000                                 
 C       0.000000       0.000000      -0.000000                                 
 C      -0.711164       1.193419       0.000000                                 
 C      -0.034074       2.386367       0.000141                                 
 C       1.370482       2.412065       0.000933                                 
 C       2.067428       1.192342       0.000144                                 
 H       1.924301      -0.937208       0.000967                                 
 H      -1.790186       1.173300       0.000962                                 
 H      -0.583208       3.318526      -0.000772                                 
 H       3.149318       1.197759      -0.000767                                 
 N      -0.711160      -1.251627       0.001756                                 
 O      -1.932441      -1.229701       0.002542                                 
 O      -0.067142      -2.289538       0.002483                                 
 N       2.040236       3.590780      -0.024683                                 
 H       1.546357       4.451509       0.132529                                 
 H       3.032458       3.607145       0.132525                                 
Cl      -0.797547      10.095114       2.036034                                 
 C       0.393516       8.824376       1.569644                                 
 H       0.999415       9.181960       0.737203                                 
 H       1.038598       8.601268       2.419382                                 
 C      -0.352012       7.556369       1.149276                                 
 H      -0.957912       7.198785       1.981717                                 
 H      -0.997095       7.779478       0.299538                                 
Cl       0.839042       6.285628       0.682891                                 
Cl       2.510007      -5.194793      -2.453218                                 
 C       3.084586      -3.652280      -3.189018                                 
 H       3.976300      -3.309252      -2.664501                                 
 H       3.321769      -3.816980      -4.239995                                 
 C       1.987019      -2.592748      -3.074476                                 
 H       1.095305      -2.935776      -3.598993                                 
 H       1.749822      -2.428046      -2.023501                                 
Cl       2.561598      -1.050235      -3.810277                                 
Cl       3.037521      -4.082892       3.333997                                 
 C       4.496693      -3.749122       2.328854                                 
 H       5.302725      -3.387152       2.966996                                 
 H       4.811723      -4.665395       1.829727                                 
 C       4.161382      -2.687142       1.279982                                 
 H       3.355357      -3.049108       0.641836                                 
 H       3.846360      -1.770866       1.779105                                 
Cl       5.620568      -2.353375       0.274840                                 
Cl       5.184955       2.815755       1.617184                                 
 C       6.822300       2.802513       2.372044                                 
 H       7.351698       1.896861       2.076302                                 
 H       7.382887       3.676220       2.039850                                 
 C       6.681970       2.836155       3.895051                                 
 H       6.152572       3.741807       4.190793                                 
 H       6.121382       1.962441       4.227238                                 
Cl       8.319315       2.822906       4.649903                                 
Cl       1.873869       0.598640       3.301831                                 
 C       0.348203       1.267019       3.992094                                 
 H       0.456614       1.381457       5.070560                                 
 H       0.140470       2.237936       3.542523                                 
 C      -0.807967       0.310270       3.695029                                 
 H      -0.916379       0.195826       2.616556                                 
 H      -0.600235      -0.660654       4.144592                                 
Cl      -2.333628       0.978636       4.385289                                 
                                                                                
      -4.813419       1.527071      -0.078101      -0.200000                    
      -5.453861       0.407121      -1.337654      -0.006000                    
      -5.588846      -0.585079      -0.907239       0.103000                    
      -6.411603       0.778857      -1.701667       0.103000                    
      -4.463081       0.327434      -2.500543      -0.006000                    
      -4.328095       1.319635      -2.930958       0.103000                    
      -3.505339      -0.044301      -2.136531       0.103000                    
      -5.103517      -0.792522      -3.760091      -0.200000                    
      -1.971035      -3.522607      -2.990427      -0.200000                    
      -2.252270      -4.822528      -1.773069      -0.006000                    
      -1.638065      -4.634995      -0.892433       0.103000                    
      -3.304075      -4.831801      -1.487487       0.103000                    
      -1.876509      -6.176835      -2.377203      -0.006000                    
      -2.490720      -6.364362      -3.257843       0.103000                    
      -0.824696      -6.167558      -2.662789       0.103000                    
      -2.157744      -7.476763      -1.159852      -0.200000                    
      -1.934426      -5.035429       1.922000      -0.200000                    
      -1.700297      -3.743216       3.157442      -0.006000                    
      -0.946752      -3.037807       2.807420       0.103000                    
      -2.642221      -3.218957       3.318232       0.103000                    
      -1.236872      -4.372869       4.472415      -0.006000                    
      -1.990417      -5.078279       4.822438       0.103000                    
      -0.294948      -4.897122       4.311633       0.103000                    
      -1.002743      -3.080649       5.707865      -0.200000                    
       6.207238       7.761709       3.196113      -0.200000                    
       5.119345       6.669888       4.131683      -0.006000                    
       5.678010       5.792992       4.458676       0.103000                    
       4.733008       7.200182       5.002002       0.103000                    
       3.953391       6.229410       3.244603      -0.006000                    
       3.394726       7.106306       2.917611       0.103000                    
       4.339724       5.699130       2.374287       0.103000                    
       2.865494       5.137601       4.180177      -0.200000                    
       6.818209      -0.736139      -3.395061      -0.200000                    
       7.807131       0.549656      -2.607845      -0.006000                    
       8.040559       0.253812      -1.585146       0.103000                    
       8.732713       0.689425      -3.166128       0.103000                    
       7.019125       1.860822      -2.591578      -0.006000                    
       6.785698       2.156665      -3.614276       0.103000                    
       6.093537       1.721059      -2.033299       0.103000                    
       8.008048       3.146623      -1.804354      -0.200000                    
       2.954961       1.044427      -6.525568      -0.200000                    
       3.493219       2.509100      -5.622232      -0.006000                    
       4.406450       2.898481      -6.072045       0.103000                    
       2.713762       3.269732      -5.665378       0.103000                    
       3.762426       2.137801      -4.162776      -0.006000                    
       2.849194       1.748413      -3.712971       0.103000                    
       4.541883       1.377168      -4.119630       0.103000                    
       4.300684       3.602474      -3.259441      -0.200000                    
      -2.446928      -1.370142      -5.878429      -0.200000                    
      -1.921030       0.304967      -5.468169      -0.006000                    
      -1.898430       0.911012      -6.373761       0.103000                    
      -2.620994       0.741610      -4.755859       0.103000                    
      -0.523075       0.263114      -4.848207      -0.006000                    
      -0.545669      -0.342932      -3.942602       0.103000                    
       0.176881      -0.173533      -5.560513       0.103000                    
       0.002828       1.938216      -4.437941      -0.200000                    
      -3.455796       5.609554       1.693927      -0.200000                    
      -5.123114       5.714185       2.372202      -0.006000                    
      -5.103336       6.287623       3.298886       0.103000                    
      -5.777709       6.207095       1.653521       0.103000                    
      -5.647469       4.305329       2.656077      -0.006000                    
      -5.667246       3.731892       1.729393       0.103000                    
      -4.992865       3.812417       3.374747       0.103000                    
      -7.314778       4.409965       3.334348      -0.200000                    
      -3.197564       4.463435      -2.941261      -0.200000                    
      -4.158987       5.788450      -2.185619      -0.006000                    
      -5.045417       5.984036      -2.788905       0.103000                    
      -4.460965       5.491351      -1.181385       0.103000                    
      -3.306376       7.056213      -2.107060      -0.006000                    
      -2.419953       6.860623      -1.503770       0.103000                    
      -3.004397       7.353312      -3.111294       0.103000                    
      -4.267807       8.381225      -1.351414      -0.200000                    
       6.792919       7.127131      -5.745584      -0.200000                    
       6.161012       7.144604      -4.056965      -0.006000                    
       6.418914       8.091117      -3.582027       0.103000                    
       5.077310       7.029332      -4.073090       0.103000                    
       6.784182       5.991978      -3.267336      -0.006000                    
       6.526273       5.045462      -3.742270       0.103000                    
       7.867877       6.107246      -3.251207       0.103000                    
       6.152268       6.009448      -1.578713      -0.200000                    
       2.348511       7.312983      -3.344412      -0.200000                    
       2.386167       8.691954      -2.183429      -0.006000                    
       2.186541       9.621493      -2.716396       0.103000                    
       1.626453       8.542293      -1.416370       0.103000                    
       3.765569       8.767724      -1.526242      -0.006000                    
       3.965195       7.838179      -0.993282       0.103000                    
       4.525283       8.917379      -2.293307       0.103000                    
       3.803225      10.146689      -0.365266      -0.200000                    
      -5.834448      -3.402557       0.984820      -0.200000                    
      -6.292083      -5.017878       0.327397      -0.006000                    
      -7.244115      -5.328966       0.757309       0.103000                    
      -6.385670      -4.955940      -0.756752       0.103000                    
      -5.212183      -6.039747       0.687916      -0.006000                    
      -4.260159      -5.728663       0.258009       0.103000                    
      -5.118598      -6.101696       1.772075       0.103000                    
      -5.669821      -7.655084       0.030495      -0.200000                    
       4.785881      -6.808445      -0.749919      -0.200000                    
       3.224063      -7.003111       0.129747      -0.006000                    
       2.808787      -6.020899       0.354987       0.103000                    
       2.523461      -7.560136      -0.492210       0.103000                    
       3.464973      -7.765594       1.433969      -0.006000                    
       3.880235      -8.747803       1.208728       0.103000                    
       4.165570      -7.208561       2.055920       0.103000                    
       1.903147      -7.960263       2.313639      -0.200000                    
       4.269543       2.767607       6.556022      -0.200000                    
       3.792144       1.117823       6.007139      -0.006000                    
       2.745628       0.940841       6.255034       0.103000                    
       3.928473       1.039853       4.928576       0.103000                    
       4.665002       0.074866       6.707641      -0.006000                    
       5.711518       0.251848       6.459746       0.103000                    
       4.528673       0.152836       7.786203       0.103000                    
       4.187597      -1.574912       6.158752      -0.200000                    
      -9.591152      -0.811701       0.641475      -0.200000                    
      -7.978454      -0.466854       1.370281      -0.006000                    
      -7.261064      -1.216741       1.037169       0.103000                    
      -7.642293       0.521821       1.058097       0.103000                    
      -8.088554      -0.509352       2.895541      -0.006000                    
      -8.805928       0.240533       3.228652       0.103000                    
      -8.424708      -1.498033       3.207729       0.103000                    
      -6.475855      -0.164505       3.624347      -0.200000                    
      -4.741742      -0.291271       7.323363      -0.200000                    
      -4.892588      -2.087578       7.362117      -0.006000                    
      -4.027458      -2.514224       7.869545       0.103000                    
      -5.800941      -2.364700       7.896897       0.103000                    
      -4.959956      -2.624634       5.931240      -0.006000                    
      -5.825087      -2.197989       5.423813       0.103000                    
      -4.051604      -2.347518       5.396453       0.103000                    
      -5.110802      -4.420940       5.969994      -0.200000                    
      -5.375232      -5.868468      -2.764948      -0.200000                    
      -5.496685      -5.772048      -4.561311      -0.006000                    
      -4.947365      -6.600746      -5.007864       0.103000                    
      -6.543832      -5.827902      -4.858439       0.103000                    
      -4.900640      -4.447772      -5.042356      -0.006000                    
      -5.449965      -3.619060      -4.595799       0.103000                    
      -3.853499      -4.391911      -4.745232       0.103000                    
      -5.022098      -4.351339      -6.838716      -0.200000                    
      -3.023625       4.531070       5.494676      -0.200000                    
      -2.513503       3.984805       7.135479      -0.006000                    
      -1.921762       3.073712       7.047700       0.103000                    
      -1.914529       4.763213       7.607943       0.103000                    
      -3.752631       3.707181       7.988626      -0.006000                    
      -4.344380       4.618264       8.076402       0.103000                    
      -4.351599       2.928766       7.516166       0.103000                    
      -3.242517       3.160906       9.629426      -0.200000                    
      -0.899605       9.621593      -2.588644      -0.200000                    
      -0.415733      11.169003      -1.799787      -0.006000                    
       0.369355      10.974677      -1.069135       0.103000                    
      -0.045818      11.862103      -2.555268       0.103000                    
      -1.626992      11.782614      -1.095011      -0.006000                    
      -2.412085      11.976940      -1.825676       0.103000                    
      -1.996912      11.089521      -0.339535       0.103000                    
      -1.143125      13.330029      -0.306159      -0.200000                    
       0.544218       7.645431       5.544309      -0.200000                    
      -1.010264       8.549718       5.414944      -0.006000                    
      -0.812900       9.564540       5.069726       0.103000                    
      -1.666246       8.045485       4.705467       0.103000                    
      -1.686273       8.600596       6.786356      -0.006000                    
      -1.883636       7.585779       7.131557       0.103000                    
      -1.030290       9.104834       7.495816       0.103000                    
      -3.240753       9.504887       6.656973      -0.200000                    
      -6.525213       3.566427      -3.575431      -0.200000                    
      -8.104872       3.382680      -2.725832      -0.006000                    
      -8.031043       2.581881      -1.990145       0.103000                    
      -8.358033       4.315979      -2.223110       0.103000                    
      -9.194510       3.040467      -3.743641      -0.006000                    
      -9.268347       3.841262      -4.479323       0.103000                    
      -8.941349       2.107160      -4.246370       0.103000                    
     -10.774175       2.856720      -2.894055      -0.200000                    
       8.594858       7.135016       0.697570      -0.200000                    
      10.163205       7.031932       1.581072      -0.006000                    
      10.830520       6.346688       1.058533       0.103000                    
      10.620297       8.020314       1.626968       0.103000                    
       9.915878       6.518631       3.000839      -0.006000                    
       9.248569       7.203867       3.523383       0.103000                    
       9.458791       5.530235       2.954941       0.103000                    
      11.484232       6.415539       3.884346      -0.200000                    
       7.649091      -5.561018       2.217669      -0.200000                    
       8.191576      -5.301798       0.517822      -0.006000                    
       8.187065      -6.252972      -0.014309       0.103000                    
       7.515413      -4.604959       0.022655       0.103000                    
       9.608274      -4.724438       0.517082      -0.006000                    
       9.612785      -3.773264       1.049213       0.103000                    
      10.284433      -5.421264       1.012252       0.103000                    
      10.150746      -4.465210      -1.182758      -0.200000                    
      10.890100      -3.996819       3.557484      -0.200000                    
       9.713700      -2.867195       4.326172      -0.006000                    
       8.823003      -3.418881       4.626574       0.103000                    
      10.170119      -2.408311       5.203117       0.103000                    
       9.324587      -1.777495       3.325382      -0.006000                    
      10.215289      -1.225815       3.024986       0.103000                    
       8.868174      -2.236385       2.448442       0.103000                    
       8.148193      -0.647871       4.094084      -0.200000                    
       1.180590       6.050745      -7.875096      -0.200000                    
       1.076353       4.287842      -8.238672      -0.006000                    
       1.183348       4.131015      -9.311933       0.103000                    
       1.872369       3.760520      -7.713078       0.103000                    
      -0.280391       3.751551      -7.778259      -0.006000                    
      -0.387381       3.908371      -6.704994       0.103000                    
      -1.076407       4.278873      -8.303853       0.103000                    
      -0.384622       1.988642      -8.141830      -0.200000                    
      13.270411       2.357197      -1.693031      -0.200000                    
      12.039833       1.733733      -0.532035      -0.006000                    
      11.497082       0.905512      -0.987440       0.103000                    
      12.537155       1.388024       0.374102       0.103000                    
      11.058564       2.853106      -0.179117      -0.006000                    
      11.601320       3.681321       0.276293       0.103000                    
      10.561242       3.198816      -1.085255       0.103000                    
       9.827987       2.229643       0.981879      -0.200000                    
      -1.668926     -10.549091       2.531693      -0.200000                    
      -2.139783      -8.901982       3.094035      -0.006000                    
      -1.243010      -8.310488       3.278159       0.103000                    
      -2.745197      -8.415912       2.329087       0.103000                    
      -2.948837      -9.016623       4.387345      -0.006000                    
      -3.845608      -9.608108       4.203212       0.103000                    
      -2.343415      -9.502689       5.152288       0.103000                    
      -3.419692      -7.369503       4.949678      -0.200000                    
       5.837174      -5.733604      -3.653021      -0.200000                    
       7.049133      -5.128282      -4.842831      -0.006000                    
       7.632482      -5.965634      -5.225608       0.103000                    
       6.534243      -4.636516      -5.668062       0.103000                    
       7.982223      -4.128849      -4.156647      -0.006000                    
       7.398873      -3.291496      -3.773870       0.103000                    
       8.497113      -4.620607      -3.331408       0.103000                    
       9.194177      -3.523513      -5.346454      -0.200000                    
       2.073117      -8.812682      -3.142782      -0.200000                    
       2.497227      -7.950325      -4.668355      -0.006000                    
       1.821539      -7.106762      -4.809068       0.103000                    
       3.523390      -7.588035      -4.607966       0.103000                    
       2.365157      -8.911572      -5.851101      -0.006000                    
       3.040839      -9.755128      -5.710394       0.103000                    
       1.338993      -9.273863      -5.911492       0.103000                    
       2.789274      -8.049212      -7.376680      -0.200000                    
       3.274986      -3.888788      -7.333528      -0.200000                    
       1.551718      -3.382714      -7.491724      -0.006000                    
       0.904364      -4.172920      -7.111700       0.103000                    
       1.386625      -2.470425      -6.918646       0.103000                    
       1.229290      -3.124340      -8.964708      -0.006000                    
       1.876645      -2.334127      -9.344726       0.103000                    
       1.394370      -4.036625      -9.537786       0.103000                    
      -0.493982      -2.618253      -9.122902      -0.200000                    
      -4.396875      13.233756       2.745361      -0.200000                    
      -4.417454      11.528982       2.158633      -0.006000                    
      -5.395257      11.302488       1.733750       0.103000                    
      -3.650275      11.397793       1.395626       0.103000                    
      -4.139122      10.583594       3.328726      -0.006000                    
      -3.161311      10.810084       3.753597       0.103000                    
      -4.906306      10.714790       4.091729       0.103000                    
      -4.159701       8.878819       2.741998      -0.200000                    
      -0.562764      -6.252143      -5.942816      -0.200000                    
      -1.284309      -7.184459      -7.307051      -0.006000                    
      -0.711987      -8.098363      -7.465718       0.103000                    
      -2.316705      -7.438961      -7.067611       0.103000                    
      -1.250882      -6.335154      -8.579041      -0.006000                    
      -1.823204      -5.421250      -8.420374       0.103000                    
      -0.218480      -6.080657      -8.818476       0.103000                    
      -1.972421      -7.267476      -9.943270      -0.200000                    
       6.948044      12.998150       4.737716      -0.200000                    
       5.285195      12.358515       4.460756      -0.006000                    
       4.693267      12.479673       5.367888       0.103000                    
       4.815832      12.907334       3.644369       0.103000                    
       5.363572      10.874370       4.098087      -0.006000                    
       5.955492      10.753213       3.190967       0.103000                    
       5.832926      10.325546       4.914479       0.103000                    
       3.700714      10.234735       3.821139      -0.200000                    
       6.155223      12.648129       1.131473      -0.200000                    
       6.944300      12.034955      -0.369272      -0.006000                    
       6.264728      12.155896      -1.212800       0.103000                    
       7.858682      12.598174      -0.555430       0.103000                    
       7.284604      10.553384      -0.197639      -0.006000                    
       7.964169      10.432440       0.645891       0.103000                    
       6.370209       9.990170      -0.011483       0.103000                    
       8.073667       9.940213      -1.698386      -0.200000                    
      -3.631684       4.943913      -7.625453      -0.200000                    
      -5.416960       4.699281      -7.563404      -0.006000                    
      -5.865288       5.454997      -6.918544       0.103000                    
      -5.830999       4.786412      -8.567842       0.103000                    
      -5.721897       3.307774      -7.005644      -0.006000                    
      -5.273562       2.552058      -7.650490       0.103000                    
      -5.307849       3.220647      -6.001209       0.103000                    
      -7.507164       3.063146      -6.943598      -0.200000                    
      10.356168      -0.570741      -7.529578      -0.200000                    
       8.790633      -0.124917      -6.754118      -0.006000                    
       8.145764      -1.002293      -6.706230       0.103000                    
       8.976636       0.245034      -5.745921       0.103000                    
       8.105599       0.966366      -7.578862      -0.006000                    
       8.750469       1.843746      -7.626766       0.103000                    
       7.919596       0.596409      -8.587066       0.103000                    
       6.540072       1.412188      -6.803413      -0.200000                    
      -8.628397       0.339156       6.836860      -0.200000                    
      -8.274334       2.090404       7.079099      -0.006000                    
      -9.127231       2.682927       6.748275       0.103000                    
      -8.087381       2.280760       8.135864       0.103000                    
      -7.038346       2.478094       6.265217      -0.006000                    
      -6.185450       1.885571       6.596041       0.103000                    
      -7.225298       2.287738       5.208452       0.103000                    
      -6.684291       4.229331       6.507452      -0.200000                    
       1.275164      -0.829696       7.589854      -0.200000                    
       1.617765      -2.507887       8.153090      -0.006000                    
       1.165539      -3.221808       7.464825       0.103000                    
       2.695468      -2.667398       8.186172       0.103000                    
       1.030279      -2.706297       9.551595      -0.006000                    
       1.482501      -1.992363      10.239862       0.103000                    
      -0.047424      -2.546785       9.518514       0.103000                    
       1.372872      -4.384492      10.114837      -0.200000                    
       1.961737     -10.823899      -0.442639      -0.200000                    