%nprocshared=4                                                                       
%mem=8GB                                                                             
#P pop=chelpg cam-b3lyp/gen scf=qc int=ultrafine charge td(nstates=10)               
                                                                                     
pNA CAM-B3LYP def2-TZVPD Single point - solvent def2-SV(P)                           
                                                                                     
0 1                                                                                  
 C       1.389235       0.000000      -0.000000                                 
 C       0.000000       0.000000      -0.000000                                 
 C      -0.711164       1.193419       0.000000                                 
 C      -0.034074       2.386367       0.000141                                 
 C       1.370482       2.412065       0.000933                                 
 C       2.067428       1.192342       0.000144                                 
 H       1.924301      -0.937208       0.000967                                 
 H      -1.790186       1.173300       0.000962                                 
 H      -0.583208       3.318526      -0.000772                                 
 H       3.149318       1.197759      -0.000767                                 
 N      -0.711160      -1.251627       0.001756                                 
 O      -1.932441      -1.229701       0.002542                                 
 O      -0.067142      -2.289538       0.002483                                 
 N       2.040236       3.590780      -0.024683                                 
 H       1.546357       4.451509       0.132529                                 
 H       3.032458       3.607145       0.132525                                 
Cl      -2.877324       2.546130      -5.014532                                 
 C      -2.845404       3.576781      -3.535487                                 
 H      -3.442055       4.473193      -3.704028                                 
 H      -3.257088       3.018795      -2.694577                                 
 C      -1.402072       3.976716      -3.223729                                 
 H      -0.805421       3.080304      -3.055188                                 
 H      -0.990385       4.534688      -4.064643                                 
Cl      -1.370143       5.007361      -1.744685                                 
Cl      -2.192683      -2.738335       4.969901                                 
 C      -2.706053      -1.034581       4.679208                                 
 H      -3.794554      -0.979044       4.672047                                 
 H      -2.314692      -0.396683       5.471587                                 
 C      -2.162977      -0.561579       3.329511                                 
 H      -1.074482      -0.617124       3.336670                                 
 H      -2.554351      -1.199476       2.537122                                 
Cl      -2.676361       1.142173       3.038817                                 
Cl       0.542879       6.687892       1.054092                                 
 C       0.276763       7.700448      -0.413845                                 
 H       0.305487       7.068595      -1.301453                                 
 H      -0.695026       8.189430      -0.346959                                 
 C       1.375267       8.761017      -0.507766                                 
 H       1.346541       9.392883       0.379845                                 
 H       2.347063       8.272042      -0.574650                                 
Cl       1.109142       9.773577      -1.975693                                 
Cl       1.460622       0.072778       4.479383                                 
 C       1.096342       1.630414       3.647521                                 
 H       1.549077       1.627673       2.656067                                 
 H       0.016909       1.748871       3.553967                                 
 C       1.667185       2.790731       4.464953                                 
 H       1.214450       2.793471       5.456417                                 
 H       2.746625       2.672266       4.558515                                 
Cl       1.302913       4.348362       3.633089                                 
Cl       5.966363       1.584821       0.082534                                 
 C       6.738714       0.317051      -0.940811                                 
 H       7.076492       0.761409      -1.876976                                 
 H       7.591549      -0.107751      -0.411482                                 
 C       5.722480      -0.787032      -1.238475                                 
 H       5.384702      -1.231390      -0.302310                                 
 H       4.869650      -0.362222      -1.767802                                 
Cl       6.494822      -2.054796      -2.261819                                 
                                                                                
       1.486785      -6.838941       1.512826      -0.200000                    
       1.784242      -5.073709       1.297427      -0.006000                    
       2.063031      -4.875593       0.262561       0.103000                    
       0.878054      -4.519765       1.542260       0.103000                    
       2.918027      -4.630836       2.224120      -0.006000                    
       2.639235      -4.828941       3.258999       0.103000                    
       3.824207      -5.184777       1.979298       0.103000                    
       3.215483      -2.865608       2.008731      -0.200000                    
      -2.957762       8.056045       2.008855      -0.200000                    
      -3.462315       6.587558       1.092420      -0.006000                    
      -4.550251       6.547579       1.040128       0.103000                    
      -3.051163       6.629303       0.083870       0.103000                    
      -2.940275       5.337995       1.804037      -0.006000                    
      -1.852339       5.377976       1.856320       0.103000                    
      -3.351434       5.296258       2.812579       0.103000                    
      -3.444827       3.869511       0.887593      -0.200000                    
      -2.302290      -5.735211       1.736856      -0.200000                    
      -3.473786      -4.366548       1.809913      -0.006000                    
      -2.951347      -3.456064       2.103220       0.103000                    
      -3.928925      -4.224838       0.829735       0.103000                    
      -4.563177      -4.682015       2.836585      -0.006000                    
      -5.085609      -5.592508       2.543286       0.103000                    
      -4.108039      -4.823725       3.816763       0.103000                    
      -5.734673      -3.313352       2.909641      -0.200000                    
       9.351865       5.272904      -1.571845      -0.200000                    
       7.611134       5.112762      -2.013609      -0.006000                    
       7.483108       5.333809      -3.073192       0.103000                    
       7.276869       4.095209      -1.811532       0.103000                    
       6.782124       6.095417      -1.184441      -0.006000                    
       6.910157       5.874363      -0.124859       0.103000                    
       7.116390       7.112956      -1.386521       0.103000                    
       5.041395       5.935261      -1.626208      -0.200000                    
       4.363732       4.665361       5.630840      -0.200000                    
       5.988086       4.499297       4.866078      -0.006000                    
       6.415996       5.488362       4.703024       0.103000                    
       6.641557       3.924041       5.521817       0.103000                    
       5.848743       3.777094       3.524685      -0.006000                    
       5.420832       2.788029       3.687738       0.103000                    
       5.195272       4.352353       2.868936       0.103000                    
       7.473097       3.611031       2.759924      -0.200000                    
      -1.846848      -3.470913      -6.270547      -0.200000                    
      -0.646909      -2.959280      -5.025853      -0.006000                    
      -0.759207      -3.578879      -4.136240       0.103000                    
       0.361225      -3.074017      -5.423916       0.103000                    
      -0.886043      -1.493419      -4.659196      -0.006000                    
      -0.773750      -0.873825      -5.548820       0.103000                    
      -1.894177      -1.378679      -4.261141       0.103000                    
       0.313890      -0.981793      -3.414503      -0.200000                    
      -3.705575      -7.052471      -3.902029      -0.200000                    
      -2.310696      -7.068407      -2.759676      -0.006000                    
      -2.560831      -7.674251      -1.888870       0.103000                    
      -1.437802      -7.490393      -3.257580       0.103000                    
      -2.000788      -5.638348      -2.313303      -0.006000                    
      -1.750653      -5.032504      -3.184109       0.103000                    
      -2.873682      -5.216362      -1.815399       0.103000                    
      -0.605910      -5.654284      -1.170950      -0.200000                    
      -7.215714      -4.839496      -1.083781      -0.200000                    
      -7.628720      -3.185244      -0.497416      -0.006000                    
      -8.497718      -2.813535      -1.040195       0.103000                    
      -7.854481      -3.223034       0.568188       0.103000                    
      -6.441861      -2.249353      -0.733777      -0.006000                    
      -5.572867      -2.621051      -0.190985       0.103000                    
      -6.216108      -2.211557      -1.799380       0.103000                    
      -6.854870      -0.595088      -0.147408      -0.200000                    
       3.330392      -2.932032      -4.633786      -0.200000                    
       3.252299      -4.726827      -4.480231      -0.006000                    
       2.400832      -5.103497      -5.046830       0.103000                    
       4.170903      -5.165385      -4.869802       0.103000                    
       3.091694      -5.106071      -3.006885      -0.006000                    
       3.943161      -4.729401      -2.440287       0.103000                    
       2.173083      -4.667520      -2.617317       0.103000                    
       3.013601      -6.900863      -2.853340      -0.200000                    
       2.804961       1.726258      -4.358228      -0.200000                    
       4.035835       2.920087      -4.915546      -0.006000                    
       3.935503       3.070932      -5.990294       0.103000                    
       3.882794       3.867870      -4.399539       0.103000                    
       5.437047       2.390969      -4.604036      -0.006000                    
       5.537385       2.240128      -3.529276       0.103000                    
       5.590095       1.443193      -5.120040       0.103000                    
       6.667920       3.584808      -5.161341      -0.200000                    
       6.589280      -1.403504       3.089603      -0.200000                    
       5.335781      -1.416912       4.385528      -0.006000                    
       4.350164      -1.284811       3.939392       0.103000                    
       5.370517      -2.368893       4.915130       0.103000                    
       5.606758      -0.276767       5.368896      -0.006000                    
       6.592388      -0.408869       5.815042       0.103000                    
       5.572027       0.675219       4.839306       0.103000                    
       4.353272      -0.290173       6.664823      -0.200000                    
       3.531763       9.157225      -4.380586      -0.200000                    
       2.896847       7.481460      -4.579757      -0.006000                    
       3.729662       6.789669      -4.705503       0.103000                    
       2.322904       7.202709      -3.696115       0.103000                    
       1.994090       7.421494      -5.813376      -0.006000                    
       1.161275       8.113286      -5.687630       0.103000                    
       2.568041       7.700241      -6.697020       0.103000                    
       1.359174       5.745729      -6.012547      -0.200000                    
      -6.938329       2.461251       1.889008      -0.200000                    
      -6.593801       1.154713       3.082833      -0.006000                    
      -6.845677       0.188096       2.646750       0.103000                    
      -5.535870       1.170958       3.344406       0.103000                    
      -7.433321       1.379919       4.341747      -0.006000                    
      -7.181435       2.346533       4.777819       0.103000                    
      -8.491252       1.363677       4.080164       0.103000                    
      -7.088784       0.073378       5.535561      -0.200000                    
      -6.508573      -5.760051      -6.978908      -0.200000                    
      -6.307832      -4.660698      -5.563953      -0.006000                    
      -7.104931      -3.917357      -5.565119       0.103000                    
      -6.353739      -5.241567      -4.642835       0.103000                    
      -4.953358      -3.955285      -5.654378      -0.006000                    
      -4.156259      -4.698626      -5.653212       0.103000                    
      -4.907456      -3.374424      -6.575499       0.103000                    
      -4.752617      -2.855932      -4.239424      -0.200000                    
       9.027813      -3.242742       1.170666      -0.200000                    
       8.041928      -4.380265       0.178140      -0.006000                    
       7.611457      -3.845048      -0.668169       0.103000                    
       8.676354      -5.187795      -0.187045       0.103000                    
       6.918232      -4.963812       1.036731      -0.006000                    
       7.348690      -5.499027       1.883029       0.103000                    
       6.283793      -4.156281       1.401904       0.103000                    
       5.932333      -6.101336       0.044204      -0.200000                    
       1.349102      -1.638414       9.118111      -0.200000                    
       1.075713      -1.963678       7.365875      -0.006000                    
       0.010216      -1.898371       7.145863       0.103000                    
       1.615626      -1.227260       6.770820       0.103000                    
       1.581727      -3.365976       7.022519      -0.006000                    
       2.647231      -3.431291       7.242540       0.103000                    
       1.041822      -4.102402       7.617582       0.103000                    
       1.308338      -3.691239       5.270282      -0.200000                    
      -1.536503       2.335995       6.690382      -0.200000                    
      -2.553903       3.790514       6.373853      -0.006000                    
      -2.496490       4.466935       7.226552       0.103000                    
      -2.192147       4.299850       5.480746       0.103000                    
      -4.006598       3.360349       6.161791      -0.006000                    
      -4.064011       2.683930       5.309082       0.103000                    
      -4.368347       2.851006       7.054897       0.103000                    
      -5.023991       4.814862       5.845263      -0.200000                    
      -2.031686      10.984687       5.945597      -0.200000                    
      -0.851131       9.835955       5.212395      -0.006000                    
      -0.068677       9.607575       5.935968       0.103000                    
      -1.365042       8.917090       4.930489       0.103000                    
      -0.225685      10.471722       3.969418      -0.006000                    
      -1.008131      10.700094       3.245843       0.103000                    
       0.288226      11.390587       4.251324       0.103000                    
       0.954869       9.322989       3.236216      -0.200000                    
      -6.840418       3.889327      -2.298931      -0.200000                    
      -7.194108       4.911849      -0.856611      -0.006000                    
      -8.030162       4.483814      -0.303662       0.103000                    
      -6.314743       4.950405      -0.213791       0.103000                    
      -7.555287       6.327251      -1.311137      -0.006000                    
      -6.719246       6.755281      -1.864079       0.103000                    
      -8.434660       6.288699      -1.953947       0.103000                    
      -7.908984       7.349777       0.131192      -0.200000                    
       9.954207       0.644147       0.343582      -0.200000                    
       9.702479       1.291196       2.007566      -0.006000                    
      10.028440       2.330478       2.046697       0.103000                    
       8.644938       1.231947       2.264588       0.103000                    
      10.516153       0.464233       3.004768      -0.006000                    
      10.190191      -0.575052       2.965647       0.103000                    
      11.573700       0.523487       2.747758       0.103000                    
      10.264424       1.111279       4.668762      -0.200000                    
      -2.181200      10.668622      -1.351312      -0.200000                    
      -2.911903       9.814318      -2.761004      -0.006000                    
      -3.305621      10.546616      -3.465744       0.103000                    
      -2.151212       9.208511      -3.253203       0.103000                    
      -4.047898       8.911153      -2.277050      -0.006000                    
      -3.654187       8.178847      -1.572312       0.103000                    
      -4.808589       9.516958      -1.784851       0.103000                    
      -4.778602       8.056846      -3.686733      -0.200000                    
       1.723446      12.066604       0.783838      -0.200000                    
       3.241996      11.453986       1.538529      -0.006000                    
       3.161640      11.521223       2.623413       0.103000                    
       3.398231      10.414841       1.249254       0.103000                    
       4.425055      12.298800       1.062039      -0.006000                    
       4.505416      12.231570      -0.022842       0.103000                    
       4.268820      13.337946       1.351314       0.103000                    
       5.943619      11.686184       1.816732      -0.200000                    
      -2.657952      -9.956827       2.241879      -0.200000                    
      -3.335887      -9.043092       0.843172      -0.006000                    
      -2.607500      -8.307571       0.501952       0.103000                    
      -3.561307      -9.735007       0.031756       0.103000                    
      -4.617987      -8.328387       1.274161      -0.006000                    
      -5.346374      -9.063908       1.615381       0.103000                    
      -4.392566      -7.636471       2.085578       0.103000                    
      -5.295922      -7.414651      -0.124545      -0.200000                    
       5.419968       9.459564      -1.735580      -0.200000                    
       6.352783      10.997259      -1.862716      -0.006000                    
       5.662437      11.832929      -1.976873       0.103000                    
       6.947330      11.137544      -0.960059       0.103000                    
       7.279569      10.932467      -3.078149      -0.006000                    
       7.969913      10.096813      -2.963998       0.103000                    
       6.685015      10.792187      -3.980805       0.103000                    
       8.212384      12.470179      -3.205292      -0.200000                    
       6.049734       8.897475       4.193073      -0.200000                    
       4.475078       9.371448       4.932455      -0.006000                    
       3.697487       9.362419       4.168799       0.103000                    
       4.217245       8.665943       5.722219       0.103000                    
       4.592070      10.777536       5.523740      -0.006000                    
       5.369673      10.786566       6.287396       0.103000                    
       4.849909      11.483049       4.733978       0.103000                    
       3.017420      11.251516       6.263124      -0.200000                    
      -0.012247      -6.290914      -5.528635      -0.200000                    
       0.214744      -7.633552      -6.710483      -0.006000                    
      -0.755866      -7.949635      -7.092487       0.103000                    
       0.836165      -7.289176      -7.537055       0.103000                    
       0.897981      -8.813506      -6.016734      -0.006000                    
       1.868590      -8.497421      -5.634729       0.103000                    
       0.276559      -9.157881      -5.190162       0.103000                    
       1.124979     -10.156150      -7.198583      -0.200000                    
       2.381277      -6.805989       6.524071      -0.200000                    
       1.481910      -7.592489       5.173705      -0.006000                    
       0.606454      -6.993791       4.922612       0.103000                    
       2.130991      -7.670955       4.301658       0.103000                    
       1.036078      -8.991104       5.604393      -0.006000                    
       1.911534      -9.589805       5.855496       0.103000                    
       0.386997      -8.912641       6.476449       0.103000                    
       0.136711      -9.777607       4.254036      -0.200000                    
      -2.252242       5.068637      -9.163631      -0.200000                    
      -2.231338       5.450605      -7.401628      -0.006000                    
      -3.183704       5.163490      -6.956034       0.103000                    
      -1.423707       4.899703      -6.919747       0.103000                    
      -2.010288       6.951927      -7.207889      -0.006000                    
      -1.057922       7.239044      -7.653492       0.103000                    
      -2.817905       7.502833      -7.689777       0.103000                    
      -1.989378       7.333905      -5.445892      -0.200000                    
     -10.311938       2.751722      -2.418901      -0.200000                    
      -9.493445       1.153517      -2.255393      -0.006000                    
      -8.618731       1.256981      -1.613425       0.103000                    
     -10.184365       0.434530      -1.815348       0.103000                    
      -9.056500       0.660746      -3.636201      -0.006000                    
      -9.931214       0.557278      -4.278159       0.103000                    
      -8.365582       1.379730      -4.076236       0.103000                    
      -8.238008      -0.937460      -3.472692      -0.200000                    
       6.091122      -4.083583      -7.076139      -0.200000                    
       6.915441      -2.861545      -6.037912      -0.006000                    
       6.509968      -2.910160      -5.027377       0.103000                    
       7.985015      -3.069543      -6.010875       0.103000                    
       6.682812      -1.463332      -6.613408      -0.006000                    
       7.088276      -1.414712      -7.623942       0.103000                    
       5.613242      -1.255327      -6.640442       0.103000                    
       7.507131      -0.241291      -5.575191      -0.200000                    
       8.857678       9.625068       0.296745      -0.200000                    
       9.318091       8.603088       1.708972      -0.006000                    
       8.547186       7.852069       1.881011       0.103000                    
      10.268129       8.109000       1.505867       0.103000                    
       9.457552       9.483945       2.951978      -0.006000                    
      10.228456      10.234962       2.779950       0.103000                    
       8.507513       9.978029       3.155093       0.103000                    
       9.917958       8.461957       4.364202      -0.200000                    
       0.212517       2.588583      -7.171479      -0.200000                    
      -0.440969       1.786633      -8.648222      -0.006000                    
      -0.952859       2.524254      -9.266162       0.103000                    
       0.378462       1.343863      -9.214298       0.103000                    
      -1.427848       0.691530      -8.239406      -0.006000                    
      -0.915958      -0.046092      -7.621465       0.103000                    
      -2.247273       1.134307      -7.673328       0.103000                    
      -2.081327      -0.110413      -9.716146      -0.200000                    
       6.882606      -5.228000      -3.305511      -0.200000                    
       8.040124      -6.505094      -3.834829      -0.006000                    
       9.028573      -6.290886      -3.428582       0.103000                    
       7.700941      -7.475732      -3.473191       0.103000                    
       8.111217      -6.527256      -5.362854      -0.006000                    
       7.122778      -6.741470      -5.769101       0.103000                    
       8.450396      -5.556625      -5.724494       0.103000                    
       9.268737      -7.804350      -5.892171      -0.200000                    
       5.020878      -6.539921       3.929308      -0.200000                    
       4.819874      -8.323470       3.757757      -0.006000                    
       4.272354      -8.711894       4.616427       0.103000                    
       4.265749      -8.540749       2.844683       0.103000                    
       6.196337      -8.987432       3.688496      -0.006000                    
       6.743856      -8.599008       2.829826       0.103000                    
       6.750461      -8.770156       4.601579       0.103000                    
       5.995324     -10.770978       3.516955      -0.200000                    
       0.233322       6.419768       8.555599      -0.200000                    
       1.753913       7.129475       7.895998      -0.006000                    
       2.316043       6.358758       7.368806       0.103000                    
       1.508895       7.936864       7.206059       0.103000                    
       2.599849       7.680647       9.045313      -0.006000                    
       2.037724       8.451367       9.572516       0.103000                    
       2.844866       6.873254       9.735261       0.103000                    
       4.120440       8.390353       8.385712      -0.200000                    
      -2.759557      -3.765014       9.375197      -0.200000                    
      -1.953270      -4.702402       8.062909      -0.006000                    
      -1.824727      -4.065775       7.187599       0.103000                    
      -0.978570      -5.046818       8.408254       0.103000                    
      -2.818048      -5.908832       7.692741      -0.006000                    
      -2.946596      -6.545463       8.568038       0.103000                    
      -3.792762      -5.564415       7.347384       0.103000                    
      -2.011775      -6.846219       6.380442      -0.200000                    
      10.479492      -3.835717      -4.756030      -0.200000                    
      10.491984      -2.056033      -4.467116      -0.006000                    
      11.398129      -1.624984      -4.892576       0.103000                    
       9.618841      -1.605035      -4.938469       0.103000                    
      10.456225      -1.783476      -2.962203      -0.006000                    
       9.550079      -2.214528      -2.536734       0.103000                    
      11.329370      -2.234476      -2.490849       0.103000                    
      10.468718      -0.003792      -2.673290      -0.200000                    
      -8.596544       5.241988      -4.684515      -0.200000                    
      -7.018556       5.290347      -5.555430      -0.006000                    
      -6.477423       6.194677      -5.277436       0.103000                    
      -6.427333       4.415409      -5.285483       0.103000                    
      -7.268875       5.290142      -7.064654      -0.006000                    
      -7.810016       4.385815      -7.342638       0.103000                    
      -7.860105       6.165085      -7.334601       0.103000                    
      -5.690886       5.338500      -7.935572      -0.200000                    
       4.534910     -10.573032      -1.685650      -0.200000                    