%nprocshared=4                                                                       
%mem=8GB                                                                             
#P pop=chelpg cam-b3lyp/gen scf=qc int=ultrafine charge td(nstates=10)               
                                                                                     
pNA CAM-B3LYP def2-TZVPD Single point - solvent def2-SV(P)                           
                                                                                     
0 1                                                                                  
 C       1.389235       0.000000      -0.000000                                 
 C       0.000000       0.000000      -0.000000                                 
 C      -0.711164       1.193419       0.000000                                 
 C      -0.034074       2.386367       0.000141                                 
 C       1.370482       2.412065       0.000933                                 
 C       2.067428       1.192342       0.000144                                 
 H       1.924301      -0.937208       0.000967                                 
 H      -1.790186       1.173300       0.000962                                 
 H      -0.583208       3.318526      -0.000772                                 
 H       3.149318       1.197759      -0.000767                                 
 N      -0.711160      -1.251627       0.001756                                 
 O      -1.932441      -1.229701       0.002542                                 
 O      -0.067142      -2.289538       0.002483                                 
 N       2.040236       3.590780      -0.024683                                 
 H       1.546357       4.451509       0.132529                                 
 H       3.032458       3.607145       0.132525                                 
Cl      -3.095716       7.479080       1.555794                                 
 C      -1.823765       6.820806       0.460452                                 
 H      -1.872769       5.731973       0.459444                                 
 H      -1.986681       7.192988      -0.550903                                 
 C      -0.445958       7.268228       0.952153                                 
 H      -0.396955       8.357060       0.953162                                 
 H      -0.283042       6.896038       1.963497                                 
Cl       0.825994       6.609953      -0.143188                                 
Cl       1.902232      -5.054179       1.692818                                 
 C       0.173966      -5.289784       1.236170                                 
 H      -0.254074      -6.093456       1.835239                                 
 H      -0.378695      -4.367873       1.416625                                 
 C       0.083625      -5.655970      -0.246435                                 
 H       0.511665      -4.852299      -0.845505                                 
 H       0.636286      -6.577881      -0.426890                                 
Cl      -1.644641      -5.891575      -0.703084                                 
Cl      -7.063188      -1.574898      -0.534102                                 
 C      -5.524938      -0.922504       0.143509                                 
 H      -4.712867      -1.620176      -0.060827                                 
 H      -5.303003       0.039230      -0.318832                                 
 C      -5.670905      -0.739366       1.655310                                 
 H      -6.482986      -0.041692       1.859637                                 
 H      -5.892850      -1.701098       2.117641                                 
Cl      -4.132666      -0.086972       2.332921                                 
Cl      -4.274035       3.113439      -5.449900                                 
 C      -3.917508       3.534693      -3.733410                                 
 H      -4.692188       4.200980      -3.354093                                 
 H      -3.894270       2.625233      -3.133141                                 
 C      -2.559299       4.233951      -3.651484                                 
 H      -1.784609       3.567663      -4.030802                                 
 H      -2.582526       5.143410      -4.251755                                 
Cl      -2.202761       4.655206      -1.935005                                 
Cl       5.121148       5.955935      -3.747978                                 
 C       3.597343       5.001975      -3.610554                                 
 H       3.324173       4.609987      -4.590189                                 
 H       3.747553       4.174785      -2.916965                                 
 C       2.475914       5.904192      -3.092104                                 
 H       2.749074       6.296171      -2.112471                                 
 H       2.325694       6.731382      -3.785692                                 
Cl       0.952100       4.950233      -2.954679                                 
                                                                                
      -0.044136       1.728813       5.698902      -0.200000                    
      -0.442576       0.665359       4.298464      -0.006000                    
      -1.524970       0.580723       4.202604       0.103000                    
      -0.029297       1.095425       3.386219       0.103000                    
       0.158867      -0.722918       4.525043      -0.006000                    
       1.241262      -0.638282       4.620903       0.103000                    
      -0.254401      -1.152987       5.437299       0.103000                    
      -0.239572      -1.786363       3.124608      -0.200000                    
      -5.397105      -1.722178      -4.194959      -0.200000                    
      -3.916068      -1.242533      -3.285379      -0.006000                    
      -4.194181      -0.919177      -2.282374       0.103000                    
      -3.238950      -2.093973      -3.218201       0.103000                    
      -3.218684      -0.093515      -4.015980      -0.006000                    
      -2.940580      -0.416870      -5.018985       0.103000                    
      -3.895802       0.757927      -4.083169       0.103000                    
      -1.737647       0.386120      -3.106402      -0.200000                    
       4.090384       1.573073       3.277969      -0.200000                    
       5.730955       2.010417       2.671177      -0.006000                    
       5.951494       1.434878       1.772248       0.103000                    
       5.760522       3.074685       2.437850       0.103000                    
       6.772921       1.695448       3.746078      -0.006000                    
       6.552391       2.270985       4.645008       0.103000                    
       6.743364       0.631186       3.979418       0.103000                    
       8.413504       2.132798       3.139298      -0.200000                    
      -4.047463       3.288473       4.165224      -0.200000                    
      -4.475128       4.222752       2.683641      -0.006000                    
      -5.129819       5.051537       2.952792       0.103000                    
      -3.566503       4.611610       2.224120       0.103000                    
      -5.194963       3.306021       1.692793      -0.006000                    
      -4.540263       2.477235       1.423643       0.103000                    
      -6.103588       2.917162       2.152314       0.103000                    
      -5.622631       4.240290       0.211209      -0.200000                    
       6.316361       4.788124      -0.307129      -0.200000                    
       7.295509       6.206194      -0.837478      -0.006000                    
       8.309306       6.114124      -0.448035       0.103000                    
       7.326065       6.240118      -1.926450       0.103000                    
       6.660267       7.492168      -0.305399      -0.006000                    
       5.646480       7.584238      -0.694843       0.103000                    
       6.629722       7.458244       0.783573       0.103000                    
       7.639426       8.910238      -0.835748      -0.200000                    
       4.700744      -1.793551      -2.039383      -0.200000                    
       4.033610      -2.482186      -3.566335      -0.006000                    
       4.812778      -3.041859      -4.083665       0.103000                    
       3.202497      -3.147365      -3.332530       0.103000                    
       3.540062      -1.346709      -4.464908      -0.006000                    
       2.760894      -0.787025      -3.947585       0.103000                    
       4.371176      -0.681518      -4.698720       0.103000                    
       2.872927      -2.035345      -5.991859      -0.200000                    
       6.848417      -4.425773      -0.277691      -0.200000                    
       6.366004      -3.916205       1.383188      -0.006000                    
       6.125146      -4.797055       1.978146       0.103000                    
       7.188608      -3.375385       1.850873       0.103000                    
       5.139249      -3.005900       1.301142      -0.006000                    
       5.380095      -2.125049       0.706183       0.103000                    
       4.316634      -3.546716       0.833448       0.103000                    
       4.656826      -2.496321       2.962023      -0.200000                    
      -0.768198      -2.506799      -5.235204      -0.200000                    
      -0.385797      -4.265821      -5.132923      -0.006000                    
      -1.172459      -4.838093      -5.624459       0.103000                    
       0.566918      -4.460021      -5.625458       0.103000                    
      -0.294222      -4.683190      -3.663994      -0.006000                    
       0.492439      -4.110928      -3.172461       0.103000                    
      -1.246937      -4.488997      -3.171471       0.103000                    
       0.088189      -6.442213      -3.561713      -0.200000                    
       7.736979      -0.096988      -1.410656      -0.200000                    
       8.021314      -0.024147       0.368307      -0.006000                    
       8.371552       0.971556       0.640058       0.103000                    
       7.091036      -0.238400       0.894243       0.103000                    
       9.077435      -1.059764       0.758739      -0.006000                    
       8.727188      -2.055478       0.486996       0.103000                    
      10.007713      -0.845510       0.232803       0.103000                    
       9.361771      -0.986923       2.537702      -0.200000                    
      -6.556067      -5.285384      -0.301024      -0.200000                    
      -5.113822      -5.598380      -1.336837      -0.006000                    
      -4.226913      -5.179947      -0.861237       0.103000                    
      -4.984735      -6.672987      -1.465268       0.103000                    
      -5.315998      -4.942625      -2.704131      -0.006000                    
      -6.202906      -5.361059      -3.179732       0.103000                    
      -5.445085      -3.868018      -2.575699       0.103000                    
      -3.873753      -5.255619      -3.739954      -0.200000                    
      -4.089804      -3.656607       3.377753      -0.200000                    
      -2.794840      -4.002285       4.583744      -0.006000                    
      -1.825816      -3.732272       4.164196       0.103000                    
      -2.974768      -3.420053       5.487385       0.103000                    
      -2.803383      -5.492850       4.928012      -0.006000                    
      -3.772397      -5.762864       5.347558       0.103000                    
      -2.623455      -6.075082       4.024371       0.103000                    
      -1.508419      -5.838518       6.134004      -0.200000                    
      -2.162484       8.521646      -4.321071      -0.200000                    
      -0.696803       8.492601      -3.271468      -0.006000                    
      -0.783198       7.681374      -2.548712       0.103000                    
       0.188708       8.337678      -3.887753       0.103000                    
      -0.574382       9.824921      -2.529609      -0.006000                    
      -0.487988      10.636140      -3.252377       0.103000                    
      -1.459884       9.979834      -1.913327       0.103000                    
       0.891308       9.795865      -1.480009      -0.200000                    
       3.311166      11.510736       0.516234      -0.200000                    
       3.864805       9.825211       0.837831      -0.006000                    
       3.084586       9.123709       0.542694       0.103000                    
       4.770004       9.624316       0.264960       0.103000                    
       4.159415       9.661218       2.330024      -0.006000                    
       4.939624      10.362721       2.625160       0.103000                    
       3.254216       9.862113       2.902894       0.103000                    
       4.713054       7.975693       2.651620      -0.200000                    
     -10.010435      -0.465413      -4.549902      -0.200000                    
      -8.800904      -0.102240      -3.263031      -0.006000                    
      -9.280212       0.460126      -2.461817       0.103000                    
      -8.402775      -1.035303      -2.864514       0.103000                    
      -7.659683       0.726829      -3.855196      -0.006000                    
      -7.180376       0.164463      -4.656409       0.103000                    
      -8.057812       1.659882      -4.253714       0.103000                    
      -6.450153       1.089999      -2.568314      -0.200000                    
      -1.385817       9.104314       8.606071      -0.200000                    
      -1.053471       7.737358       7.478296      -0.006000                    
      -0.134341       7.234020       7.777982       0.103000                    
      -1.882208       7.030170       7.509958       0.103000                    
      -0.898153       8.276684       6.055112      -0.006000                    
      -1.817283       8.780021       5.755426       0.103000                    
      -0.069427       8.983872       6.023449       0.103000                    
      -0.565808       6.909726       4.927346      -0.200000                    
       6.819165      -1.869155      -6.038007      -0.200000                    
       7.416721      -0.245518      -6.545607      -0.006000                    
       8.283335      -0.364005      -7.195894       0.103000                    
       6.627927       0.280447      -7.083301       0.103000                    
       7.814899       0.561091      -5.308179      -0.006000                    
       6.948286       0.679578      -4.657892       0.103000                    
       8.603695       0.035138      -4.770493       0.103000                    
       8.412445       2.184730      -5.815789      -0.200000                    
       2.462381       2.647987      -6.578261      -0.200000                    
       1.493972       1.159238      -6.889142      -0.006000                    
       2.151873       0.364193      -7.239901       0.103000                    
       1.003703       0.845410      -5.967692       0.103000                    
       0.436095       1.452302      -7.954704      -0.006000                    
      -0.221806       2.247347      -7.603945       0.103000                    
       0.926364       1.766128      -8.876143       0.103000                    
      -0.532314      -0.036447      -8.265585      -0.200000                    
       1.746078       4.720488       7.268753      -0.200000                    
       3.248427       5.634369       6.870366      -0.006000                    
       3.962214       5.534719       7.688019       0.103000                    
       3.685442       5.234449       5.955491       0.103000                    
       2.907989       7.112131       6.668628      -0.006000                    
       2.194201       7.211783       5.850975       0.103000                    
       2.470963       7.512053       7.583503       0.103000                    
       4.410337       8.026012       6.270241      -0.200000                    
      -0.272920       5.552011      -5.901004      -0.200000                    
      -1.242949       5.505686      -7.420130      -0.006000                    
      -0.776471       4.821301      -8.128628       0.103000                    
      -2.253366       5.163996      -7.196031       0.103000                    
      -1.302727       6.907446      -8.029875      -0.006000                    
      -1.769205       7.591831      -7.321377       0.103000                    
      -0.292311       7.249136      -8.253973       0.103000                    
      -2.272756       6.861121      -9.549002      -0.200000                    
      -7.540781       3.522268       6.225873      -0.200000                    
      -7.803154       1.741364       6.123340      -0.006000                    
      -8.027944       1.349278       7.115130       0.103000                    
      -8.637385       1.534772       5.453042       0.103000                    
      -6.538527       1.069808       5.584684      -0.006000                    
      -6.313737       1.461893       4.592893       0.103000                    
      -5.704288       1.276392       6.254969       0.103000                    
      -6.800901      -0.711096       5.482150      -0.200000                    
       2.987287      -5.973259       9.343746      -0.200000                    
       2.439137      -5.147349       7.837665      -0.006000                    
       2.421184      -5.863493       7.016218       0.103000                    
       1.438644      -4.742217       7.988716       0.103000                    
       3.403993      -4.009162       7.500196      -0.006000                    
       3.421957      -3.293018       8.321641       0.103000                    
       4.404496      -4.414297       7.349153       0.103000                    
       2.855844      -3.183254       5.994124      -0.200000                    
       0.895964      -9.273827       1.747115      -0.200000                    
      -0.897819      -9.439960       1.672456      -0.006000                    
      -1.313496      -9.348645       2.675865       0.103000                    
      -1.309306      -8.656816       1.035828       0.103000                    
      -1.259464     -10.809224       1.093945      -0.006000                    
      -0.843787     -10.900537       0.090536       0.103000                    
      -0.847986     -11.592358       1.730575       0.103000                    
      -3.053256     -10.975348       1.019287      -0.200000                    
      10.872614       5.087084      -0.928014      -0.200000                    
      11.553226       3.464313      -1.320811      -0.006000                    
      12.414581       3.580808      -1.978454       0.103000                    
      11.862435       2.967469      -0.401299       0.103000                    
      10.487256       2.620418      -2.022173      -0.006000                    
       9.625901       2.503933      -1.364529       0.103000                    
      10.178046       3.117262      -2.941685       0.103000                    
      11.167869       0.997657      -2.414968      -0.200000                    
       2.877982      13.297098      -5.069763      -0.200000                    
       3.672714      11.682943      -4.952366      -0.006000                    
       3.183347      10.986387      -5.633030       0.103000                    
       4.724901      11.775316      -5.221252       0.103000                    
       3.557136      11.160695      -3.519127      -0.006000                    
       4.046491      11.857242      -2.838465       0.103000                    
       2.504948      11.068323      -3.250242       0.103000                    
       4.351856       9.546531      -3.401732      -0.200000                    
      -9.526699      -3.171862       2.378374      -0.200000                    
      -9.176213      -3.942422       3.970310      -0.006000                    
      -9.367124      -3.227219       4.770312       0.103000                    
      -9.817274      -4.814091       4.101309       0.103000                    
      -7.710098      -4.377007       4.014689      -0.006000                    
      -7.519187      -5.092210       3.214688       0.103000                    
      -7.069036      -3.505331       3.883702       0.103000                    
      -7.359601      -5.147570       5.606635      -0.200000                    
      -8.984852       1.942148       2.823324      -0.200000                    
      -9.493381       1.768992       1.102183      -0.006000                    
      -9.938713       2.702685       0.758972       0.103000                    
      -8.624166       1.533473       0.488178       0.103000                    
     -10.520526       0.641341       0.984922      -0.006000                    
     -10.075192      -0.292342       1.328135       0.103000                    
     -11.389740       0.876868       1.598938       0.103000                    
     -11.029055       0.468193      -0.736207      -0.200000                    
      -6.425859      -9.806903       5.028790      -0.200000                    
      -5.309669      -9.326235       3.696885      -0.006000                    
      -4.286398      -9.584731       3.968949       0.103000                    
      -5.586656      -9.851606       2.782987       0.103000                    
      -5.409934      -7.817080       3.467196      -0.006000                    
      -6.433203      -7.558574       3.195135       0.103000                    
      -5.132946      -7.291708       4.381094       0.103000                    
      -4.293742      -7.336402       2.135293      -0.200000                    
       4.778412      -8.826548      -4.165853      -0.200000                    
       3.810027      -8.589110      -2.663610      -0.006000                    
       3.201941      -7.689861      -2.761348       0.103000                    
       3.161606      -9.451421      -2.508911       0.103000                    
       4.752368      -8.439336      -1.467783      -0.006000                    
       5.360445      -9.338586      -1.370044       0.103000                    
       5.400791      -7.577016      -1.622479       0.103000                    
       3.783984      -8.201890       0.034462      -0.200000                    
      -6.825372       7.964661      -3.531739      -0.200000                    
      -7.622166       7.152209      -2.133229      -0.006000                    
      -7.013528       7.287328      -1.239231       0.103000                    
      -8.607375       7.589469      -1.971791       0.103000                    
      -7.769977       5.658337      -2.427854      -0.006000                    
      -8.378626       5.523222      -3.321862       0.103000                    
      -6.784769       5.221077      -2.589292       0.103000                    
      -8.566772       4.845888      -1.029354      -0.200000                    
       1.358469      -7.226872       4.749300      -0.200000                    
       3.038928      -7.595033       4.209465      -0.006000                    
       3.023279      -7.923049       3.170196       0.103000                    
       3.653929      -6.699647       4.298897       0.103000                    
       3.624238      -8.704587       5.085069      -0.006000                    
       3.639887      -8.376570       6.124338       0.103000                    
       3.009237      -9.599973       4.995636       0.103000                    
       5.304698      -9.072747       4.545234      -0.200000                    
       1.639088      -0.598104       8.517411      -0.200000                    
       2.568406       0.877892       8.060641      -0.006000                    
       2.613730       0.957375       6.974561       0.103000                    
       2.074671       1.759392       8.469403       0.103000                    
       3.987465       0.781678       8.623999      -0.006000                    
       3.942142       0.702195       9.710079       0.103000                    
       4.481201      -0.099822       8.215238       0.103000                    
       4.916783       2.257677       8.167219      -0.200000                    
       6.484199      -4.802167       5.438172      -0.200000                    
       6.820210      -3.272949       6.332266      -0.006000                    
       5.892501      -2.715437       6.460540       0.103000                    
       7.241090      -3.508238       7.309750       0.103000                    
       7.817454      -2.426793       5.538581      -0.006000                    
       8.745153      -2.984303       5.410308       0.103000                    
       7.396575      -2.191496       4.561110       0.103000                    
       8.153456      -0.897573       6.432676      -0.200000                    
      13.590574       5.604766       3.847955      -0.200000                    
      11.789864       5.517682       3.820307      -0.006000                    
      11.466696       4.550558       4.205220       0.103000                    
      11.377845       6.312504       4.441925       0.103000                    
      11.293256       5.685706       2.383126      -0.006000                    
      11.616434       6.652830       1.998213       0.103000                    
      11.705275       4.890886       1.761498       0.103000                    
       9.492546       5.598624       2.355468      -0.200000                    
       9.775426      -3.791481      -5.645436      -0.200000                    
       8.457953      -4.991308      -5.370711      -0.006000                    
       7.730526      -4.924124      -6.179597       0.103000                    
       8.880528      -5.995618      -5.344292       0.103000                    
       7.767199      -4.694069      -4.038469      -0.006000                    
       8.494617      -4.761252      -3.229583       0.103000                    
       7.344624      -3.689758      -4.064888       0.103000                    
       6.449727      -5.893904      -3.763757      -0.200000                    
       2.374891       7.371553      -7.290861      -0.200000                    
       3.999353       7.942408      -6.755795      -0.006000                    
       3.956314       8.228158      -5.704872       0.103000                    
       4.727021       7.141350      -6.885240       0.103000                    
       4.417296       9.150882      -7.595586      -0.006000                    
       4.460334       8.865120      -8.646502       0.103000                    
       3.689627       9.951939      -7.466143       0.103000                    
       6.041756       9.721724      -7.060513      -0.200000                    
      -3.980793      -1.198571      -9.019350      -0.200000                    
      -4.352973      -2.962480      -8.986586      -0.006000                    
      -5.401247      -3.108100      -8.726192       0.103000                    
      -4.159113      -3.393269      -9.968832       0.103000                    
      -3.468987      -3.650903      -7.944951      -0.006000                    
      -2.420703      -3.505283      -8.205344       0.103000                    
      -3.662837      -3.220115      -6.962704       0.103000                    
      -3.841167      -5.414814      -7.912178      -0.200000                    
      -1.615495     -10.606826      -2.501583      -0.200000                    
      -3.093477      -9.713930      -3.020531      -0.006000                    
      -3.007676      -8.667605      -2.727745       0.103000                    
      -3.197373      -9.781114      -4.103413       0.103000                    
      -4.323189     -10.330901      -2.351542      -0.006000                    
      -4.408992     -11.377235      -2.644330       0.103000                    
      -4.219294     -10.263717      -1.268660       0.103000                    
      -5.801162      -9.438007      -2.870480      -0.200000                    
      -2.626887       0.117884       7.995885      -0.200000                    
      -1.763148       1.232912       9.119061      -0.006000                    
      -2.263113       1.232552      10.087541       0.103000                    
      -0.732837       0.899219       9.241667       0.103000                    
      -1.774513       2.649063       8.540491      -0.006000                    
      -1.274549       2.649424       7.572011       0.103000                    
      -2.804826       2.982744       8.417892       0.103000                    
      -0.910776       3.764082       9.663664      -0.200000                    
      -6.572229      11.600737       2.162620      -0.200000                    