%nprocshared=4                                                                       
%mem=8GB                                                                             
#P pop=chelpg cam-b3lyp/gen scf=qc int=ultrafine charge td(nstates=10)               
                                                                                     
pNA CAM-B3LYP def2-TZVPD Single point - solvent def2-SV(P)                           
                                                                                     
0 1                                                                                  
 C       1.389235       0.000000      -0.000000                                 
 C       0.000000       0.000000      -0.000000                                 
 C      -0.711164       1.193419       0.000000                                 
 C      -0.034074       2.386367       0.000141                                 
 C       1.370482       2.412065       0.000933                                 
 C       2.067428       1.192342       0.000144                                 
 H       1.924301      -0.937208       0.000967                                 
 H      -1.790186       1.173300       0.000962                                 
 H      -0.583208       3.318526      -0.000772                                 
 H       3.149318       1.197759      -0.000767                                 
 N      -0.711160      -1.251627       0.001756                                 
 O      -1.932441      -1.229701       0.002542                                 
 O      -0.067142      -2.289538       0.002483                                 
 N       2.040236       3.590780      -0.024683                                 
 H       1.546357       4.451509       0.132529                                 
 H       3.032458       3.607145       0.132525                                 
Cl      -1.060945       6.882699      -1.224631                                 
 C       0.609980       7.253293      -1.791764                                 
 H       0.905155       8.239487      -1.433612                                 
 H       1.300100       6.504081      -1.403966                                 
 C       0.645173       7.235190      -3.321086                                 
 H       0.349997       6.248995      -3.679238                                 
 H      -0.044948       7.984401      -3.708884                                 
Cl       2.316094       7.605786      -3.888211                                 
Cl      -5.303114      -0.878409       1.745614                                 
 C      -4.980817      -2.428442       2.608411                                 
 H      -5.190071      -2.303564       3.670746                                 
 H      -5.620952      -3.211053       2.201299                                 
 C      -3.514168      -2.821075       2.420826                                 
 H      -3.304908      -2.945964       1.358485                                 
 H      -2.874031      -2.038466       2.827928                                 
Cl      -3.191880      -4.371113       3.283622                                 
Cl       4.663214       3.350715      -1.866625                                 
 C       5.945902       3.944708      -2.985914                                 
 H       6.640250       4.581492      -2.437917                                 
 H       6.484972       3.095027      -3.404730                                 
 C       5.302870       4.748132      -4.117876                                 
 H       4.608517       4.111341      -4.665884                                 
 H       4.763794       5.597806      -3.699071                                 
Cl       6.585549       5.342120      -5.237166                                 
Cl      -0.051272      -2.980372      -4.902769                                 
 C       1.522223      -2.578183      -4.119697                                 
 H       2.333602      -2.742159      -4.828706                                 
 H       1.516946      -1.533660      -3.808412                                 
 C       1.726369      -3.473359      -2.896034                                 
 H       0.914990      -3.309388      -2.187012                                 
 H       1.731643      -4.517879      -3.207310                                 
Cl       3.299874      -3.071171      -2.112948                                 
Cl       7.766310       2.069675       1.407561                                 
 C       6.198407       2.946307       1.252405                                 
 H       6.271750       3.683809       0.453276                                 
 H       5.405861       2.235326       1.019388                                 
 C       5.877019       3.653511       2.570330                                 
 H       5.803685       2.916014       3.369461                                 
 H       6.669565       4.364492       2.803347                                 
Cl       4.309116       4.530143       2.415175                                 
                                                                                
      -5.422065      -2.394975      -3.845610      -0.200000                    
      -3.914175      -1.588265      -4.416879      -0.006000                    
      -3.264762      -2.324650      -4.890090       0.103000                    
      -4.168258      -0.811096      -5.137575       0.103000                    
      -3.188850      -0.960430      -3.225199      -0.006000                    
      -3.838267      -0.224059      -2.751985       0.103000                    
      -2.934770      -1.737612      -2.504499       0.103000                    
      -1.680955      -0.153728      -3.796464      -0.200000                    
      -2.705778       3.341207      -4.687934      -0.200000                    
      -2.679613       3.727503      -2.926976      -0.006000                    
      -1.752576       3.359271      -2.487699       0.103000                    
      -2.742887       4.806988      -2.790589       0.103000                    
      -3.870537       3.056582      -2.240003      -0.006000                    
      -4.797574       3.424814      -2.679281       0.103000                    
      -3.807263       1.977097      -2.376392       0.103000                    
      -3.844372       3.442878      -0.479046      -0.200000                    
       4.737938      -0.819359       2.000579      -0.200000                    
       4.419765      -0.073512       3.610951      -0.006000                    
       4.077831      -0.840531       4.305724       0.103000                    
       5.336516       0.377845       3.990108       0.103000                    
       3.342174       1.003255       3.470268      -0.006000                    
       3.684109       1.770274       2.775495       0.103000                    
       2.425432       0.551903       3.091112       0.103000                    
       3.024001       1.749102       5.080639      -0.200000                    
      -1.087517      -7.545109       2.520505      -0.200000                    
      -0.057359      -6.690974       1.312112      -0.006000                    
       0.672078      -7.387594       0.899092       0.103000                    
      -0.684299      -6.302764       0.509526       0.103000                    
       0.673574      -5.532448       1.993260      -0.006000                    
      -0.055859      -4.835836       2.406283       0.103000                    
       1.300518      -5.920666       2.795850       0.103000                    
       1.703733      -4.678319       0.784880      -0.200000                    
       8.009162      -3.832136      -1.440919      -0.200000                    
       6.918833      -2.525759      -0.844764      -0.006000                    
       5.905852      -2.915274      -0.744297       0.103000                    
       7.270454      -2.172881       0.124674       0.103000                    
       6.921745      -1.364879      -1.841108      -0.006000                    
       7.934729      -0.975369      -1.941562       0.103000                    
       6.570126      -1.717762      -2.810533       0.103000                    
       5.831417      -0.058502      -1.244952      -0.200000                    
      -5.150800       2.162848       4.582881      -0.200000                    
      -3.406944       2.154979       5.040903      -0.006000                    
      -3.068283       3.178604       5.200327       0.103000                    
      -3.274503       1.581210       5.958074       0.103000                    
      -2.587623       1.516456       3.917799      -0.006000                    
      -2.926286       0.492816       3.758368       0.103000                    
      -2.720060       2.090217       3.000632       0.103000                    
      -0.843764       1.508585       4.375812      -0.200000                    
       1.756174       5.731949       7.536393      -0.200000                    
       1.572473       6.290476       5.831920      -0.006000                    
       0.823231       7.080787       5.787049       0.103000                    
       2.526651       6.673099       5.469864       0.103000                    
       1.128607       5.117419       4.955965      -0.006000                    
       1.877841       4.327103       5.000834       0.103000                    
       0.174429       4.734796       5.318020       0.103000                    
       0.944895       5.675944       3.251499      -0.200000                    
       0.557798      -1.378780       3.374286      -0.200000                    
      -0.035092      -2.362260       4.764322      -0.006000                    
      -1.049856      -2.704215       4.561161       0.103000                    
       0.617588      -3.223744       4.904778       0.103000                    
      -0.030068      -1.507196       6.032873      -0.006000                    
       0.984693      -1.165232       6.236030       0.103000                    
      -0.682742      -0.645705       5.892427       0.103000                    
      -0.622949      -2.490671       7.422909      -0.200000                    
      -0.226770       3.611939      -7.650662      -0.200000                    
       0.404310       4.219984      -6.074904      -0.006000                    
       1.290183       4.830537      -6.249278       0.103000                    
      -0.361000       4.821420      -5.584481       0.103000                    
       0.770900       3.034127      -5.180635      -0.006000                    
      -0.114973       2.423575      -5.006261       0.103000                    
       1.536205       2.432679      -5.671056       0.103000                    
       1.401979       3.642173      -3.604877      -0.200000                    
      -2.072610       4.857764       3.064168      -0.200000                    
      -2.462001       6.568342       2.648005      -0.006000                    
      -1.608378       7.023794       2.146162       0.103000                    
      -3.328259       6.593567       1.986992       0.103000                    
      -2.774930       7.345954       3.927738      -0.006000                    
      -3.628554       6.890502       4.429580       0.103000                    
      -1.908672       7.320730       4.588751       0.103000                    
      -3.164321       9.056533       3.511575      -0.200000                    
      -3.113390      -4.744105      -2.807437      -0.200000                    
      -1.921486      -5.901691      -2.107274      -0.006000                    
      -0.960570      -5.402819      -1.981982       0.103000                    
      -2.279168      -6.250336      -1.138536       0.103000                    
      -1.756500      -7.095798      -3.049234      -0.006000                    
      -2.717412      -7.594672      -3.174535       0.103000                    
      -1.398822      -6.747166      -4.017970       0.103000                    
      -0.564600      -8.253397      -2.349068      -0.200000                    
       4.895397       9.419646       1.985821      -0.200000                    
       3.177400       9.056060       1.577053      -0.006000                    
       2.891294       9.610122       0.683130       0.103000                    
       3.065588       7.987478       1.393788       0.103000                    
       2.277302       9.469926       2.742758      -0.006000                    
       2.563411       8.915862       3.636671       0.103000                    
       2.389105      10.538509       2.926008       0.103000                    
       0.559308       9.106338       2.333980      -0.200000                    
      -2.985283       7.317872      -4.048468      -0.200000                    
      -3.943956       8.007665      -2.686101      -0.006000                    
      -3.275607       8.519515      -1.993800       0.103000                    
      -4.674067       8.716048      -3.077337       0.103000                    
      -4.671287       6.879707      -1.951937      -0.006000                    
      -5.339638       6.367858      -2.644229       0.103000                    
      -3.941178       6.171326      -1.560693       0.103000                    
      -5.629959       7.569495      -0.589558      -0.200000                    
       6.319428      11.472055      -3.450505      -0.200000                    
       6.151033      10.100129      -2.292735      -0.006000                    
       7.134394       9.820319      -1.915089       0.103000                    
       5.514640      10.402268      -1.461067       0.103000                    
       5.520719       8.903722      -3.008020      -0.006000                    
       4.537352       9.183524      -3.385677       0.103000                    
       6.157112       8.601583      -3.839689       0.103000                    
       5.352314       7.531797      -1.850265      -0.200000                    
      -7.241546       4.195579      -1.317311      -0.200000                    
      -8.124927       2.811603      -2.062418      -0.006000                    
      -9.164198       2.824632      -1.734256       0.103000                    
      -8.085455       2.897344      -3.148257       0.103000                    
      -7.470980       1.497612      -1.631057      -0.006000                    
      -6.431717       1.484578      -1.959220       0.103000                    
      -7.510451       1.411871      -0.545218       0.103000                    
      -8.354373       0.113640      -2.376169      -0.200000                    
       4.667768      -4.246657       3.239631      -0.200000                    
       6.076717      -4.913157       2.333220      -0.006000                    
       6.118813      -5.993642       2.469939       0.103000                    
       5.967957      -4.684800       1.273032       0.103000                    
       7.366851      -4.282331       2.860445      -0.006000                    
       7.324758      -3.201847       2.723716       0.103000                    
       7.475606      -4.510678       3.920629       0.103000                    
       8.775798      -4.948823       1.954021      -0.200000                    
      -7.228356      -5.044702      -0.041066      -0.200000                    
      -6.945323      -5.232663      -1.811764      -0.006000                    
      -7.769677      -4.779086      -2.361894       0.103000                    
      -6.011765      -4.740940      -2.084945       0.103000                    
      -6.858309      -6.719961      -2.159206      -0.006000                    
      -6.033955      -7.173538      -1.609076       0.103000                    
      -7.791867      -7.211684      -1.886025       0.103000                    
      -6.575280      -6.907913      -3.929907      -0.200000                    
      -6.541109       6.507124       3.895743      -0.200000                    
      -7.842988       5.527416       3.123644      -0.006000                    
      -8.666449       5.399025       3.826026       0.103000                    
      -8.202752       6.039575       2.231331       0.103000                    
      -7.286772       4.156387       2.734663      -0.006000                    
      -6.463311       4.284778       2.032282       0.103000                    
      -6.927008       3.644228       3.626976       0.103000                    
      -8.588643       3.176683       1.962566      -0.200000                    
       5.802959       7.006118       4.930557      -0.200000                    
       7.273846       7.302349       3.930736      -0.006000                    
       7.389396       6.496299       3.206240       0.103000                    
       7.171093       8.251649       3.405140       0.103000                    
       8.505056       7.352738       4.837383      -0.006000                    
       8.389508       8.158784       5.561869       0.103000                    
       8.607810       6.403434       5.362969       0.103000                    
       9.975945       7.648966       3.837552      -0.200000                    
      10.768963       5.385951      -3.456711      -0.200000                    
      10.497569       6.328376      -1.943751      -0.006000                    
      11.409234       6.327525      -1.346383       0.103000                    
      10.230053       7.354070      -2.197371       0.103000                    
       9.362388       5.689362      -1.141639      -0.006000                    
       8.450707       5.690219      -1.739002       0.103000                    
       9.629900       4.663676      -0.888022       0.103000                    
       9.090982       6.631791       0.371317      -0.200000                    
       1.115260      11.759558       0.119571      -0.200000                    
      -0.401343      11.253695      -0.714075      -0.006000                    
      -0.511211      11.815578      -1.641520       0.103000                    
      -0.355071      10.188007      -0.937944       0.103000                    
      -1.599977      11.531670       0.194978      -0.006000                    
      -1.490115      10.969780       1.122411       0.103000                    
      -1.646257      12.597351       0.418845       0.103000                    
      -3.116580      11.025807      -0.638669      -0.200000                    
       2.867405      -7.876269      -2.027141      -0.200000                    
       4.412094      -8.426754      -1.277580      -0.006000                    
       4.276423      -9.421916      -0.854315       0.103000                    
       5.193678      -8.457942      -2.036587       0.103000                    
       4.816734      -7.452712      -0.169475      -0.006000                    
       4.952400      -6.457542      -0.592744       0.103000                    
       4.035158      -7.421519       0.589534       0.103000                    
       6.361418      -8.003189       0.580083      -0.200000                    
       4.347387      -2.472836      -7.771123      -0.200000                    
       5.376431      -1.959196      -6.382567      -0.006000                    
       4.759748      -1.450747      -5.641508       0.103000                    
       5.840267      -2.835545      -5.930033       0.103000                    
       6.465040      -1.006221      -6.879694      -0.006000                    
       7.081723      -1.514669      -7.620754       0.103000                    
       6.001207      -0.129875      -7.332238       0.103000                    
       7.494092      -0.492576      -5.491137      -0.200000                    
       5.885901      -0.791215       7.556756      -0.200000                    
       5.012912      -2.359533       7.727888      -0.006000                    
       5.731548      -3.178886       7.715558       0.103000                    
       4.465703      -2.370046       8.670441       0.103000                    
       4.030819      -2.525795       6.566777      -0.006000                    
       3.312176      -1.706431       6.579113       0.103000                    
       4.578029      -2.515281       5.624225       0.103000                    
       3.157823      -4.094102       6.737915      -0.200000                    
       8.278206      -0.708710       3.414639      -0.200000                    
       8.575874      -0.351065       5.156584      -0.006000                    
       7.793025       0.308270       5.531314       0.103000                    
       8.570651      -1.281178       5.724765       0.103000                    
       9.935441       0.332974       5.311632      -0.006000                    
      10.718290      -0.326361       4.936902       0.103000                    
       9.940660       1.263090       4.743461       0.103000                    
      10.233109       0.690619       7.053577      -0.200000                    
       9.102612       2.322182      -2.571954      -0.200000                    
      10.629380       1.363356      -2.548575      -0.006000                    
      10.428904       0.351838      -2.901478       0.103000                    
      11.365529       1.836010      -3.198674       0.103000                    
      11.173643       1.305957      -1.119971      -0.006000                    
      11.374115       2.317483      -0.767072       0.103000                    
      10.437494       0.833303      -0.469872       0.103000                    
      12.700406       0.347139      -1.096595      -0.200000                    
       4.572102       3.710539       9.259371      -0.200000                    
       6.008883       3.204700       8.294643      -0.006000                    
       6.917419       3.409523       8.860834       0.103000                    
       5.946227       2.137691       8.081302       0.103000                    
       6.041038       3.986061       6.979789      -0.006000                    
       5.132498       3.781240       6.413608       0.103000                    
       6.103691       5.053072       7.193141       0.103000                    
       7.477816       3.480224       6.015071      -0.200000                    
      -1.365423      -2.732603      -8.460801      -0.200000                    
       0.272988      -2.001181      -8.282928      -0.006000                    
       0.883683      -2.630340      -7.635517       0.103000                    
       0.744155      -1.922104      -9.262574       0.103000                    
       0.144921      -0.607467      -7.665262      -0.006000                    
      -0.465774       0.021691      -8.312674       0.103000                    
      -0.326246      -0.686544      -6.685615       0.103000                    
       1.783332       0.123955      -7.487388      -0.200000                    
     -11.724148       0.377604       0.750236      -0.200000                    
     -10.051165      -0.288612       0.840343      -0.006000                    
      -9.794603      -0.756839      -0.109869       0.103000                    
      -9.349146       0.518561       1.049172       0.103000                    
      -9.976694      -1.330424       1.958106      -0.006000                    
     -10.233247      -0.862191       2.908319       0.103000                    
     -10.678704      -2.137592       1.749279       0.103000                    
      -8.303712      -1.996640       2.048213      -0.200000                    
       2.909506      -7.689129       5.817667      -0.200000                    
       2.232465      -8.661279       4.458479      -0.006000                    
       2.135661      -9.701679       4.768541       0.103000                    
       1.252354      -8.270708       4.185047       0.103000                    
       3.170015      -8.574202       3.252751      -0.006000                    
       3.266819      -7.533802       2.942689       0.103000                    
       4.150126      -8.964772       3.526183       0.103000                    
       2.492976      -9.546357       1.893577      -0.200000                    
      -7.747895      -0.946442      -8.423138      -0.200000                    
      -7.106042      -0.318943      -6.859444      -0.006000                    
      -7.782771      -0.596046      -6.051240       0.103000                    
      -6.121552      -0.747538      -6.672335       0.103000                    
      -6.993224       1.205109      -6.929373      -0.006000                    
      -6.316487       1.482216      -7.737576       0.103000                    
      -7.977705       1.633709      -7.116482       0.103000                    
      -6.351371       1.832608      -5.365680      -0.200000                    
       1.947317      11.537836      -5.863133      -0.200000                    
       0.178812      11.718937      -5.562336      -0.006000                    
      -0.084615      12.776514      -5.568519       0.103000                    
      -0.377738      11.201056      -6.343349       0.103000                    
      -0.171439      11.114676      -4.201227      -0.006000                    
       0.092000      10.057096      -4.195040       0.103000                    
       0.385115      11.632547      -3.420210       0.103000                    
      -1.939941      11.295769      -3.900426      -0.200000                    
      -6.465413      -6.682151       7.290578      -0.200000                    
      -5.642651      -5.127857       7.688179      -0.006000                    
      -6.267704      -4.549187       8.368190       0.103000                    
      -4.683842      -5.335161       8.163204       0.103000                    
      -5.412694      -4.329460       6.403658      -0.006000                    
      -4.787642      -4.908129       5.723648       0.103000                    
      -6.371504      -4.122156       5.928632       0.103000                    
      -4.589929      -2.775173       6.801262      -0.200000                    
       0.899315     -11.891765       0.222836      -0.200000                    
      -0.863965     -11.808379      -0.144142      -0.006000                    
      -1.009531     -11.776687      -1.223843       0.103000                    
      -1.362287     -12.687478       0.264231       0.103000                    
      -1.457136     -10.547380       0.487044      -0.006000                    
      -1.311579     -10.579078       1.566744       0.103000                    
      -0.958822      -9.668287       0.078671       0.103000                    
      -3.220424     -10.464002       0.120065      -0.200000                    
      -8.315349     -10.293086       1.916690      -0.200000                    
      -7.036853      -9.029370       1.777616      -0.006000                    
      -6.081027      -9.502387       1.552661       0.103000                    
      -7.296512      -8.335979       0.977791       0.103000                    
      -6.928847      -8.265684       3.098782      -0.006000                    
      -7.884673      -7.792665       3.323737       0.103000                    
      -6.669194      -8.959082       3.898597       0.103000                    
      -5.650350      -7.001970       2.959699      -0.200000                    
      10.087827       2.477982      -6.211081      -0.200000                    
       8.353214       2.679575      -6.659874      -0.006000                    
       7.723065       2.312342      -5.849950       0.103000                    
       8.143038       3.734762      -6.834205       0.103000                    
       8.060340       1.884589      -7.933681      -0.006000                    
       8.690506       2.251817      -8.743609       0.103000                    
       8.270524       0.829392      -7.759355       0.103000                    
       6.325737       2.086188      -8.382472      -0.200000                    
      12.387589       6.178094       1.726506      -0.200000                    
      12.473103       4.377839       1.675183      -0.006000                    
      12.485423       4.043864       0.637770       0.103000                    
      13.381301       4.042573       2.175865       0.103000                    
      11.252836       3.788928       2.385471      -0.006000                    
      11.240515       4.122902       3.422884       0.103000                    
      10.344638       4.124194       1.884789       0.103000                    
      11.338349       1.988672       2.334149      -0.200000                    
       0.947844       2.340502       8.603657      -0.200000                    
      -0.850579       2.383626       8.482341      -0.006000                    
      -1.255976       2.979111       9.300255       0.103000                    
      -1.140179       2.828504       7.530434       0.103000                    
      -1.401709       0.959076       8.567531      -0.006000                    
      -0.996315       0.363599       7.749612       0.103000                    
      -1.112108       0.514197       9.519437       0.103000                    
      -3.200137       1.002192       8.446204      -0.200000                    
      -2.881861      -6.434589     -10.504406      -0.200000                    