%nprocshared=4                                                                       
%mem=8GB                                                                             
#P pop=chelpg cam-b3lyp/gen scf=qc int=ultrafine charge td(nstates=10)               
                                                                                     
pNA CAM-B3LYP def2-TZVPD Single point - solvent def2-SV(P)                           
                                                                                     
0 1                                                                                  
 C       1.389235       0.000000      -0.000000                                 
 C       0.000000       0.000000      -0.000000                                 
 C      -0.711164       1.193419       0.000000                                 
 C      -0.034074       2.386367       0.000141                                 
 C       1.370482       2.412065       0.000933                                 
 C       2.067428       1.192342       0.000144                                 
 H       1.924301      -0.937208       0.000967                                 
 H      -1.790186       1.173300       0.000962                                 
 H      -0.583208       3.318526      -0.000772                                 
 H       3.149318       1.197759      -0.000767                                 
 N      -0.711160      -1.251627       0.001756                                 
 O      -1.932441      -1.229701       0.002542                                 
 O      -0.067142      -2.289538       0.002483                                 
 N       2.040236       3.590780      -0.024683                                 
 H       1.546357       4.451509       0.132529                                 
 H       3.032458       3.607145       0.132525                                 
Cl       5.264894       2.914515       0.702888                                 
 C       6.741155       1.973872       1.135069                                 
 H       6.703611       0.996809       0.653563                                 
 H       7.626858       2.511835       0.797320                                 
 C       6.803629       1.791788       2.652726                                 
 H       6.841174       2.768852       3.134232                                 
 H       5.917918       1.253826       2.990469                                 
Cl       8.279889       0.851146       3.084906                                 
Cl      -3.989061       8.087379       1.253101                                 
 C      -2.752885       6.884623       0.727659                                 
 H      -2.854494       5.975989       1.320923                                 
 H      -2.899814       6.649009      -0.326298                                 
 C      -1.353945       7.470301       0.928470                                 
 H      -1.252347       8.378943       0.335206                                 
 H      -1.207017       7.705914       1.982428                                 
Cl      -0.117768       6.267558       0.403027                                 
Cl      -0.620780      -5.393864      -1.442891                                 
 C      -2.214641      -4.550970      -1.446809                                 
 H      -2.062552      -3.484844      -1.278925                                 
 H      -2.703089      -4.701359      -2.409471                                 
 C      -3.095821      -5.121282      -0.333854                                 
 H      -3.247918      -6.187407      -0.501742                                 
 H      -2.607369      -4.970887       0.628803                                 
Cl      -4.689690      -4.278388      -0.337776                                 
Cl       6.248251      -3.568573      -0.374672                                 
 C       5.661470      -2.058289       0.416305                                 
 H       6.456965      -1.637027       1.030856                                 
 H       5.371401      -1.336928      -0.347475                                 
 C       4.453281      -2.380535       1.297683                                 
 H       3.657786      -2.801797       0.683132                                 
 H       4.743358      -3.101896       2.061468                                 
Cl       3.866507      -0.870252       2.088665                                 
Cl      -0.638314      -2.077385       3.352931                                 
 C      -2.065989      -3.005749       2.760627                                 
 H      -2.789631      -2.318983       2.321667                                 
 H      -1.744805      -3.725477       2.007787                                 
 C      -2.713194      -3.747813       3.931434                                 
 H      -1.989557      -4.434587       4.370383                                 
 H      -3.034386      -3.028085       4.684268                                 
Cl      -4.140877      -4.676177       3.339125                                 
                                                                                
       0.098690       1.383373       4.967006      -0.200000                    
       1.497507       1.883051       3.945008      -0.006000                    
       2.397598       1.371196       4.285275       0.103000                    
       1.300709       1.620213       2.905714       0.103000                    
       1.697686       3.395435       4.058816      -0.006000                    
       0.797592       3.907297       3.718537       0.103000                    
       1.894490       3.658279       5.098104       0.103000                    
       3.096511       3.895111       3.036806      -0.200000                    
       3.048282      -2.217974      -2.415921      -0.200000                    
       2.563631      -3.916240      -2.779056      -0.006000                    
       1.504061      -4.046795      -2.559513       0.103000                    
       2.745542      -4.128922      -3.832445       0.103000                    
       3.384683      -4.876417      -1.916337      -0.006000                    
       4.444253      -4.745861      -2.135879       0.103000                    
       3.202773      -4.663734      -0.862947       0.103000                    
       2.900035      -6.574691      -2.279477      -0.200000                    
      -0.279853      -7.914702       1.665644      -0.200000                    
       0.505393      -6.576015       2.583344      -0.006000                    
      -0.215523      -6.135489       3.271928       0.103000                    
       1.352330      -6.968728       3.145854       0.103000                    
       0.995300      -5.506288       1.605564      -0.006000                    
       1.716209      -5.946811       0.916992       0.103000                    
       0.148348      -5.113572       1.043060       0.103000                    
       1.780531      -4.167597       2.523270      -0.200000                    
      -2.364952       2.966883       2.469116      -0.200000                    
      -3.834269       2.000161       2.865926      -0.006000                    
      -4.451173       2.551066       3.575769       0.103000                    
      -4.404509       1.815134       1.955683       0.103000                    
      -3.414728       0.665281       3.484377      -0.006000                    
      -2.797829       0.114371       2.774541       0.103000                    
      -2.844476       0.850300       4.394619       0.103000                    
      -4.884034      -0.301449       3.881187      -0.200000                    
       1.664913       4.440289      -5.393975      -0.200000                    
       2.726592       4.520244      -3.938849      -0.006000                    
       2.114159       4.469065      -3.038705       0.103000                    
       3.424671       3.683330      -3.951678       0.103000                    
       3.507860       5.835468      -3.949300      -0.006000                    
       4.120281       5.886641      -4.849443       0.103000                    
       2.809777       6.672375      -3.936464       0.103000                    
       4.569531       5.915422      -2.494178      -0.200000                    
      -0.862569      -2.170539      -5.263192      -0.200000                    
      -0.051444      -1.213507      -3.968157      -0.006000                    
      -0.803730      -0.694462      -3.374343       0.103000                    
       0.520654      -1.882788      -3.325699       0.103000                    
       0.890485      -0.189794      -4.604678      -0.006000                    
       1.642771      -0.708838      -5.198492       0.103000                    
       0.318387       0.479487      -5.247136       0.103000                    
       1.701610       0.767238      -3.309643      -0.200000                    
      -6.864064      -0.408030      -3.629851      -0.200000                    
      -6.791264      -0.324156      -1.830216      -0.006000                    
      -6.976999       0.699774      -1.506147       0.103000                    
      -7.547958      -0.983128      -1.404633       0.103000                    
      -5.405776      -0.765539      -1.354831      -0.006000                    
      -5.220038      -1.789478      -1.678904       0.103000                    
      -4.649070      -0.106576      -1.780413       0.103000                    
      -5.332973      -0.681674       0.444800      -0.200000                    
       1.469616       9.206966       1.530968      -0.200000                    
       3.075237       8.683841       0.899178      -0.006000                    
       2.936520       8.115896      -0.020678       0.103000                    
       3.689276       9.561039       0.695772       0.103000                    
       3.771233       7.805170       1.940289      -0.006000                    
       3.909950       8.373116       2.860146       0.103000                    
       3.157201       6.927971       2.143701       0.103000                    
       5.376854       7.282044       1.308500      -0.200000                    
       5.988252       0.687212      -2.472792      -0.200000                    
       5.406778       1.106259      -4.127198      -0.006000                    
       4.628476       1.866073      -4.057434       0.103000                    
       6.238008       1.490464      -4.718271       0.103000                    
       4.838598      -0.144675      -4.800063      -0.006000                    
       5.616899      -0.904489      -4.869826       0.103000                    
       4.007359      -0.528879      -4.208995       0.103000                    
       4.257126       0.274365      -6.454473      -0.200000                    
      -1.613699       4.498302      -4.239788      -0.200000                    
      -2.083233       2.758706      -4.175113      -0.006000                    
      -1.202342       2.151897      -3.965881       0.103000                    
      -2.822144       2.610597      -3.387689       0.103000                    
      -2.681364       2.341640      -5.519969      -0.006000                    
      -3.562259       2.948457      -5.729197       0.103000                    
      -1.942456       2.489757      -6.307388       0.103000                    
      -3.150898       0.602044      -5.455296      -0.200000                    
       5.281956      -1.037527       4.774888      -0.200000                    
       5.010825       0.537135       5.610236      -0.006000                    
       5.929299       0.847352       6.108337       0.103000                    
       4.721245       1.291549       4.878833       0.103000                    
       3.897320       0.379146       6.647298      -0.006000                    
       2.978846       0.068928       6.149197       0.103000                    
       4.186900      -0.375271       7.378684       0.103000                    
       3.626186       1.953814       7.482634      -0.200000                    
      -5.085151       3.764613      -3.181384      -0.200000                    
      -5.352114       5.544518      -3.073197      -0.006000                    
      -5.273577       5.861388      -2.033326       0.103000                    
      -4.599981       6.061842      -3.668708       0.103000                    
      -6.745502       5.884447      -3.605440      -0.006000                    
      -6.824045       5.567571      -4.645306       0.103000                    
      -7.497628       5.367122      -3.009925       0.103000                    
      -7.012457       7.664351      -3.497248      -0.200000                    
      -2.563930       8.592741      -3.269708      -0.200000                    
      -0.922986       9.338715      -3.311052      -0.006000                    
      -0.192645       8.632832      -2.915738       0.103000                    
      -0.664457       9.591822      -4.339167       0.103000                    
      -0.918313      10.608198      -2.457336      -0.006000                    
      -1.648646      11.314080      -2.852645       0.103000                    
      -1.176843      10.355091      -1.429221       0.103000                    
       0.722639      11.354171      -2.498674      -0.200000                    
       8.231387       3.370882      -1.853138      -0.200000                    
       9.119950       1.859169      -2.272715      -0.006000                    
       8.417131       1.118013      -2.653143       0.103000                    
       9.867402       2.076611      -3.035589       0.103000                    
       9.811837       1.310877      -1.023295      -0.006000                    
      10.514654       2.052042      -0.642862       0.103000                    
       9.064387       1.093435      -0.260422       0.103000                    
      10.700400      -0.200835      -1.442873      -0.200000                    
       5.128087       6.337216       8.655037      -0.200000                    
       4.309598       7.180050       7.287368      -0.006000                    
       3.637723       7.942994       7.680310       0.103000                    
       5.058286       7.648846       6.648887       0.103000                    
       3.506626       6.165834       6.470657      -0.006000                    
       4.178506       5.402896       6.077710       0.103000                    
       2.757939       5.697036       7.109138       0.103000                    
       2.688137       7.008667       5.102989      -0.200000                    
      -8.024817      -5.546546      -4.498518      -0.200000                    
      -6.791877      -4.231519      -4.537322      -0.006000                    
      -6.991783      -3.570477      -5.380547       0.103000                    
      -6.838873      -3.661606      -3.609473       0.103000                    
      -5.398099      -4.843611      -4.689160      -0.006000                    
      -5.198196      -5.504645      -3.845930       0.103000                    
      -5.351104      -5.413516      -5.617003       0.103000                    
      -4.165158      -3.528584      -4.727964      -0.200000                    
       8.505258       7.960060      -2.067021      -0.200000                    
       7.250166       8.863122      -1.139566      -0.006000                    
       6.340220       8.265858      -1.082595       0.103000                    
       7.616517       9.064455      -0.133009       0.103000                    
       6.947739      10.186104      -1.845696      -0.006000                    
       7.857676      10.783368      -1.902671       0.103000                    
       6.581379       9.984772      -2.852259       0.103000                    
       5.692650      11.089158      -0.918247      -0.200000                    
      -3.609416       8.044829       6.414011      -0.200000                    
      -4.735284       7.432627       5.145703      -0.006000                    
      -5.764575       7.562524       5.479833       0.103000                    
      -4.579871       7.989780       4.221949       0.103000                    
      -4.464050       5.947746       4.896765      -0.006000                    
      -3.434762       5.817857       4.562640       0.103000                    
      -4.619468       5.390588       5.820526       0.103000                    
      -5.589931       5.335540       3.628458      -0.200000                    
      -7.170782       2.399673       2.229987      -0.200000                    
      -8.344748       1.357294       3.116621      -0.006000                    
      -7.803163       0.680470       3.777357       0.103000                    
      -9.013588       1.983653       3.706758       0.103000                    
      -9.162956       0.542934       2.112788      -0.006000                    
      -9.704543       1.219766       1.452057       0.103000                    
      -8.494124      -0.083425       1.522646       0.103000                    
     -10.336922      -0.499445       2.999422      -0.200000                    
       5.820710      -6.037259       5.357067      -0.200000                    
       4.099412      -5.782926       4.884500      -0.006000                    
       4.050985      -5.082956       4.050440       0.103000                    
       3.659811      -6.734640       4.586399       0.103000                    
       3.323064      -5.213322       6.073270      -0.006000                    
       3.371499      -5.913292       6.907337       0.103000                    
       3.762672      -4.261608       6.371377       0.103000                    
       1.601774      -4.958990       5.600710      -0.200000                    
       1.645094      -1.697777       7.866433      -0.200000                    
      -0.056714      -1.746004       7.272771      -0.006000                    
      -0.060437      -1.836516       6.186629       0.103000                    
      -0.570423      -2.601723       7.710672       0.103000                    
      -0.775193      -0.457958       7.679043      -0.006000                    
      -0.771478      -0.367446       8.765180       0.103000                    
      -0.261480       0.397752       7.241137       0.103000                    
      -2.477008      -0.506185       7.085375      -0.200000                    
      -2.597271      -5.779669      -6.966831      -0.200000                    
      -1.259490      -6.754709      -6.252334      -0.006000                    
      -1.515920      -7.029038      -5.229134       0.103000                    
      -1.111287      -7.657634      -6.844532       0.103000                    
       0.028544      -5.929331      -6.250891      -0.006000                    
       0.284964      -5.655016      -7.274096       0.103000                    
      -0.119661      -5.026421      -5.658692       0.103000                    
       1.366315      -6.904385      -5.536398      -0.200000                    
      11.776723       4.088443       0.714842      -0.200000                    
      10.385027       5.204973       0.974557      -0.006000                    
      10.728397       6.236881       0.902389       0.103000                    
       9.624693       5.020900       0.215617       0.103000                    
       9.788768       4.962399       2.362331      -0.006000                    
       9.445396       3.930492       2.434500       0.103000                    
      10.549102       5.146473       3.121271       0.103000                    
       8.397064       6.078932       2.622059      -0.200000                    
       7.662022      -8.780967      -0.744753      -0.200000                    
       6.056398      -8.327710      -0.061043      -0.006000                    
       5.357505      -8.130992      -0.873930       0.103000                    
       5.678896      -9.145135       0.553157       0.103000                    
       6.204613      -7.071001       0.798658      -0.006000                    
       6.903503      -7.267713       1.611533       0.103000                    
       6.582112      -6.253570       0.184446       0.103000                    
       4.598991      -6.617730       1.482366      -0.200000                    
       7.164145      -2.606296      -3.541986      -0.200000                    
       8.938224      -2.815590      -3.297357      -0.006000                    
       9.389354      -3.195157      -4.214067       0.103000                    
       9.385887      -1.855072      -3.042498       0.103000                    
       9.182457      -3.809206      -2.160079      -0.006000                    
       8.731327      -3.429640      -1.243369       0.103000                    
       8.734794      -4.769724      -2.414937       0.103000                    
      10.956541      -4.018493      -1.915439      -0.200000                    
      -8.938211      -3.053588      -1.789286      -0.200000                    
      -9.444977      -4.564057      -0.945109      -0.006000                    
     -10.531575      -4.587931      -0.863594       0.103000                    
      -9.103861      -5.429732      -1.512719       0.103000                    
      -8.828287      -4.597425       0.454527      -0.006000                    
      -7.741693      -4.573544       0.372999       0.103000                    
      -9.169398      -3.731744       1.022131       0.103000                    
      -9.335052      -6.107893       1.298704      -0.200000                    
      -7.822663       1.366841       6.671783      -0.200000                    
      -6.378742       2.287593       6.107738      -0.006000                    
      -6.178983       2.046736       5.063699       0.103000                    
      -6.568616       3.356493       6.204359       0.103000                    
      -5.166355       1.906546       6.959390      -0.006000                    
      -5.366109       2.147407       8.003424       0.103000                    
      -4.976473       0.837643       6.862759       0.103000                    
      -3.722434       2.827298       6.395345      -0.200000                    
      -2.618188      -8.845273      -2.259279      -0.200000                    
      -0.865683      -9.242906      -2.406180      -0.006000                    
      -0.354228      -8.440802      -2.938120       0.103000                    
      -0.433288      -9.353168      -1.411779       0.103000                    
      -0.703013     -10.552262      -3.180443      -0.006000                    
      -1.214467     -11.354367      -2.648505       0.103000                    
      -1.135407     -10.442000      -4.174846       0.103000                    
       1.049493     -10.949895      -3.327345      -0.200000                    
       3.439334      -4.350773     -10.370147      -0.200000                    
       3.938825      -4.454729      -8.640784      -0.006000                    
       3.583693      -5.393371      -8.215563       0.103000                    
       5.025872      -4.413247      -8.573196       0.103000                    
       3.335096      -3.283006      -7.864300      -0.006000                    
       3.690237      -2.344365      -8.289518       0.103000                    
       2.248058      -3.324489      -7.931884       0.103000                    
       3.834585      -3.386976      -6.134939      -0.200000                    
      -9.416686       2.361595      -4.668812      -0.200000                    
      -7.764481       2.668220      -5.322360      -0.006000                    
      -7.660025       3.725583      -5.565207       0.103000                    
      -7.020778       2.391612      -4.575103       0.103000                    
      -7.552590       1.832036      -6.585809      -0.006000                    
      -7.657049       0.774680      -6.342957       0.103000                    
      -8.296296       2.108652      -7.333061       0.103000                    
      -5.900387       2.138669      -7.239352      -0.200000                    
      -7.219653       5.744351       0.325944      -0.200000                    
      -8.124094       7.140558       1.021364      -0.006000                    
      -9.055320       6.786631       1.463487       0.103000                    
      -7.517072       7.621226       1.788439       0.103000                    
      -8.436820       8.148254      -0.086407      -0.006000                    
      -7.505591       8.502174      -0.528535       0.103000                    
      -9.043842       7.667587      -0.853482       0.103000                    
      -9.341259       9.544455       0.609007      -0.200000                    
      -0.560010       6.243520       6.701250      -0.200000                    
      -1.349237       4.940486       7.665694      -0.006000                    
      -2.178419       4.519090       7.097515       0.103000                    
      -0.622387       4.157879       7.882839       0.103000                    
      -1.875764       5.524961       8.977766      -0.006000                    
      -1.046585       5.946366       9.545950       0.103000                    
      -2.602616       6.307577       8.760626       0.103000                    
      -2.664994       4.221938       9.942217      -0.200000                    
       0.701489       8.577321      -6.761091      -0.200000                    
       0.812472       7.067990      -7.741155      -0.006000                    
       1.004065       7.324303      -8.783029       0.103000                    
       1.625831       6.448381      -7.363703       0.103000                    
      -0.504683       6.296487      -7.640300      -0.006000                    
      -0.696280       6.040183      -6.598420       0.103000                    
      -1.318051       6.916097      -8.017757       0.103000                    
      -0.393712       4.787165      -8.620364      -0.200000                    
      -4.879024      -9.380002       1.172100      -0.200000                    
      -6.302828      -8.710018       0.291912      -0.006000                    
      -7.113220      -9.438756       0.303359       0.103000                    
      -6.632304      -7.792215       0.778743       0.103000                    
      -5.911034      -8.406588      -1.155418      -0.006000                    
      -5.100647      -7.677857      -1.166858       0.103000                    
      -5.581560      -9.324405      -1.642247       0.103000                    
      -7.334844      -7.736610      -2.035599      -0.200000                    
       4.398856      11.678893       4.874325      -0.200000                    
       3.096125      11.990762       3.667472      -0.006000                    
       2.614703      11.049997       3.400878       0.103000                    
       2.357841      12.668253       4.096303       0.103000                    
       3.702887      12.625409       2.414713      -0.006000                    
       4.184309      13.566174       2.681308       0.103000                    
       4.441171      11.947918       1.985882       0.103000                    
       2.400156      12.937279       1.207860      -0.200000                    
      10.706222      -6.463649       4.371326      -0.200000                    
       9.488881      -5.299559       3.728054      -0.006000                    
       8.927647      -5.769551       2.920540       0.103000                    
       8.804924      -5.010731       4.525981       0.103000                    
      10.203881      -4.056509       3.195165      -0.006000                    
      10.765117      -3.586517       4.002679       0.103000                    
      10.887839      -4.345337       2.397238       0.103000                    
       8.986544      -2.892426       2.551888      -0.200000                    
      -2.249834       2.213874      -9.471561      -0.200000                    
      -0.644869       1.518940      -9.033334      -0.006000                    
      -0.011299       1.480175      -9.919345       0.103000                    
      -0.172584       2.144139      -8.275733       0.103000                    
      -0.835045       0.105089      -8.480862      -0.006000                    
      -1.468625       0.143854      -7.594856       0.103000                    
      -1.307338      -0.520110      -9.238467       0.103000                    
       0.769919      -0.589845      -8.042633      -0.200000                    
       4.879304      -7.694687      -6.961181      -0.200000                    
       6.158895      -7.040551      -5.872332      -0.006000                    
       7.087891      -7.587235      -6.033599       0.103000                    
       6.316236      -5.984208      -6.089814       0.103000                    
       5.719789      -7.200838      -4.415682      -0.006000                    
       4.790790      -6.654146      -4.254410       0.103000                    
       5.562446      -8.257174      -4.198194       0.103000                    
       6.999380      -6.546702      -3.326833      -0.200000                    
      -1.236121      14.444987       1.388091      -0.200000                    