%nprocshared=4                                                                       
%mem=8GB                                                                             
#P pop=chelpg cam-b3lyp/gen scf=qc int=ultrafine charge td(nstates=10)               
                                                                                     
pNA CAM-B3LYP def2-TZVPD Single point - solvent def2-SV(P)                           
                                                                                     
0 1                                                                                  
 C       1.389235       0.000000      -0.000000                                 
 C       0.000000       0.000000      -0.000000                                 
 C      -0.711164       1.193419       0.000000                                 
 C      -0.034074       2.386367       0.000141                                 
 C       1.370482       2.412065       0.000933                                 
 C       2.067428       1.192342       0.000144                                 
 H       1.924301      -0.937208       0.000967                                 
 H      -1.790186       1.173300       0.000962                                 
 H      -0.583208       3.318526      -0.000772                                 
 H       3.149318       1.197759      -0.000767                                 
 N      -0.711160      -1.251627       0.001756                                 
 O      -1.932441      -1.229701       0.002542                                 
 O      -0.067142      -2.289538       0.002483                                 
 N       2.040236       3.590780      -0.024683                                 
 H       1.546357       4.451509       0.132529                                 
 H       3.032458       3.607145       0.132525                                 
Cl       0.558799       9.615738      -3.400808                                 
 C       1.217904       8.151578      -2.580646                                 
 H       0.843134       7.256819      -3.077516                                 
 H       2.306611       8.166062      -2.630429                                 
 C       0.775003       8.144474      -1.116356                                 
 H       1.149776       9.039244      -0.619487                                 
 H      -0.313702       8.129998      -1.066574                                 
Cl       1.434111       6.680324      -0.296195                                 
Cl       6.166628       1.300269      -0.346274                                 
 C       5.667519      -0.432125      -0.370945                                 
 H       6.495264      -1.053863      -0.030054                                 
 H       4.811246      -0.573204       0.288480                                 
 C       5.283683      -0.831941      -1.796842                                 
 H       4.455934      -0.210203      -2.137742                                 
 H       6.139952      -0.690861      -2.456276                                 
Cl       4.784570      -2.564335      -1.821522                                 
Cl       2.705765       5.189053       2.869777                                 
 C       3.697363       3.701303       3.102912                                 
 H       3.039156       2.842285       3.232588                                 
 H       4.330367       3.545686       2.229378                                 
 C       4.574871       3.862899       4.345601                                 
 H       5.233085       4.721905       4.215922                                 
 H       3.941867       4.018516       5.219135                                 
Cl       5.566469       2.375149       4.578735                                 
Cl      -2.033075       6.394354       0.713728                                 
 C      -2.222489       5.297067       2.131842                                 
 H      -1.881559       4.296657       1.865560                                 
 H      -1.628978       5.673714       2.964823                                 
 C      -3.695757       5.241273       2.540225                                 
 H      -4.036687       6.241684       2.806507                                 
 H      -4.289264       4.864627       1.707253                                 
Cl      -3.885171       4.143987       3.958338                                 
Cl      -5.195477      -0.240100       2.393840                                 
 C      -6.092584      -0.240539       0.829841                                 
 H      -6.383995      -1.260187       0.578131                                 
 H      -6.983809       0.380105       0.921727                                 
 C      -5.193436       0.319458      -0.273923                                 
 H      -4.902024       1.339106      -0.022213                                 
 H      -4.302207      -0.301186      -0.365800                                 
Cl      -6.090549       0.319031      -1.837919                                 
                                                                                
      -3.332084       3.170244      -0.730485      -0.200000                    
      -4.012211       3.246633      -2.398565      -0.006000                    
      -4.938004       2.672962      -2.440360       0.103000                    
      -4.215619       4.284728      -2.661084       0.103000                    
      -3.003847       2.659225      -3.387779      -0.006000                    
      -2.078063       3.232899      -3.345981       0.103000                    
      -2.800440       1.621130      -3.125260       0.103000                    
      -3.683974       2.735615      -5.055859      -0.200000                    
       1.469891      -2.111351      -2.838650      -0.200000                    
       0.206161      -0.958577      -3.408837      -0.006000                    
      -0.361785      -1.413795      -4.220096       0.103000                    
      -0.465592      -0.718695      -2.584720       0.103000                    
       0.874096       0.322807      -3.911074      -0.006000                    
       1.442054       0.778032      -3.099819       0.103000                    
       1.545852       0.082935      -4.735191       0.103000                    
      -0.389634       1.475582      -4.481260      -0.200000                    
       4.725697       6.698556      -1.747434      -0.200000                    
       4.215931       5.402638      -2.892734      -0.006000                    
       3.192868       5.101035      -2.668465       0.103000                    
       4.268359       5.778974      -3.914287       0.103000                    
       5.146258       4.197156      -2.745587      -0.006000                    
       6.169324       4.498759      -2.969847       0.103000                    
       5.093830       3.820820      -1.724034       0.103000                    
       4.636492       2.901238      -3.890887      -0.200000                    
      -1.780813      -1.127707       3.593557      -0.200000                    
      -3.099927      -2.302299       3.955825      -0.006000                    
      -2.793135      -2.952217       4.775231       0.103000                    
      -4.001685      -1.760033       4.239956       0.103000                    
      -3.384540      -3.148566       2.713588      -0.006000                    
      -3.691332      -2.498647       1.894182       0.103000                    
      -2.482780      -3.690822       2.429457       0.103000                    
      -4.703655      -4.323157       3.075857      -0.200000                    
      -6.615309      -3.845108      -0.957878      -0.200000                    
      -4.862211      -3.930981      -0.545372      -0.006000                    
      -4.497167      -2.933757      -0.300004       0.103000                    
      -4.722104      -4.590355       0.311099       0.103000                    
      -4.082850      -4.478435      -1.742571      -0.006000                    
      -4.447894      -5.475670      -1.987930       0.103000                    
      -4.222956      -3.819071      -2.599034       0.103000                    
      -2.329753      -4.564308      -1.330065      -0.200000                    
       1.186119      -4.133472       4.636921      -0.200000                    
       2.087829      -2.926006       3.647052      -0.006000                    
       3.054868      -3.339597       3.361213       0.103000                    
       1.514326      -2.689511       2.750877       0.103000                    
       2.300846      -1.651860       4.466506      -0.006000                    
       1.333807      -1.238268       4.752345       0.103000                    
       2.874348      -1.888355       5.362680       0.103000                    
       3.202552      -0.444393       3.476628      -0.200000                    
       2.250019      -5.808219       1.274561      -0.200000                    
       1.147006      -6.474608       0.013544      -0.006000                    
       0.786084      -5.663773      -0.619088       0.103000                    
       1.687254      -7.198629      -0.596271       0.103000                    
      -0.041621      -7.162464       0.687634      -0.006000                    
       0.319298      -7.973300       1.320256       0.103000                    
      -0.581870      -6.438443       1.297449       0.103000                    
      -1.144637      -7.828852      -0.573393      -0.200000                    
       1.594647       1.669558       7.635743      -0.200000                    
       0.771202       2.630509       6.351443      -0.006000                    
      -0.212631       2.940286       6.703605       0.103000                    
       1.368013       3.512146       6.118050       0.103000                    
       0.615516       1.773264       5.093959      -0.006000                    
       1.599354       1.463485       4.741807       0.103000                    
       0.018706       0.891627       5.327353       0.103000                    
      -0.207928       2.734215       3.809659      -0.200000                    
      10.979505       4.167373      -1.309220      -0.200000                    
       9.453835       4.822548      -0.606322      -0.006000                    
       9.689122       5.640231       0.074821       0.103000                    
       8.812747       5.189884      -1.407589       0.103000                    
       8.728145       3.714598       0.159295      -0.006000                    
       8.492861       2.896915      -0.521861       0.103000                    
       9.369231       3.347263       0.960563       0.103000                    
       7.202479       4.369771       0.862180      -0.200000                    
      -7.464310      -1.443565      -5.492167      -0.200000                    
      -6.009442      -2.186665      -4.729215      -0.006000                    
      -6.143211      -2.220738      -3.648079       0.103000                    
      -5.875523      -3.198703      -5.111053       0.103000                    
      -4.774085      -1.348474      -5.063461      -0.006000                    
      -4.640307      -1.314403      -6.144601       0.103000                    
      -4.907995      -0.336438      -4.681628       0.103000                    
      -3.319207      -2.091576      -4.300513      -0.200000                    
       1.336222      -6.889191      -3.205786      -0.200000                    
       1.811641      -5.394783      -4.095519      -0.006000                    
       2.037538      -4.602897      -3.381491       0.103000                    
       2.693059      -5.598465      -4.703420       0.103000                    
       0.660204      -4.951814      -5.000118      -0.006000                    
       0.434312      -5.743701      -5.714137       0.103000                    
      -0.221203      -4.748145      -4.392211       0.103000                    
       1.135627      -3.457408      -5.889843      -0.200000                    
       6.327215      10.616040       0.507702      -0.200000                    
       4.639698      10.000922       0.664898      -0.006000                    
       3.947283      10.842160       0.693553       0.103000                    
       4.403693       9.364697      -0.188040       0.103000                    
       4.510522       9.190594       1.956029      -0.006000                    
       5.202936       8.349367       1.927365       0.103000                    
       4.746526       9.826830       2.808958       0.103000                    
       2.823005       8.575478       2.113226      -0.200000                    
       7.880451      -0.124164       2.517466      -0.200000                    
       7.825201      -1.056391       4.059796      -0.006000                    
       8.168387      -2.075336       3.881234       0.103000                    
       8.471217      -0.579024       4.796501       0.103000                    
       6.388949      -1.087424       4.585724      -0.006000                    
       6.045760      -0.068489       4.764286       0.103000                    
       5.742929      -1.564791       3.849010       0.103000                    
       6.333708      -2.019654       6.128049      -0.200000                    
      -0.296954       3.835758      -9.269319      -0.200000                    
      -1.119583       4.354846      -7.751181      -0.006000                    
      -1.680327       5.270919      -7.936446       0.103000                    
      -1.801735       3.571479      -7.421149       0.103000                    
      -0.072538       4.609324      -6.665207      -0.006000                    
       0.488212       3.693260      -6.479934       0.103000                    
       0.609617       5.392700      -6.995240       0.103000                    
      -0.895173       5.128423      -5.147068      -0.200000                    
      -6.190328       4.413550      -0.330848      -0.200000                    
      -7.210853       3.854815       1.046554      -0.006000                    
      -6.774241       2.955731       1.481265       0.103000                    
      -7.260164       4.637536       1.803432       0.103000                    
      -8.621435       3.543759       0.542761      -0.006000                    
      -9.058043       4.442842       0.108060       0.103000                    
      -8.572115       2.761035      -0.214121       0.103000                    
      -9.641958       2.985023       1.920172      -0.200000                    
      -7.152654       1.769299       6.457109      -0.200000                    
      -5.432030       1.795941       6.995265      -0.006000                    
      -5.078854       2.826377       7.033172       0.103000                    
      -5.353937       1.348186       7.985879       0.103000                    
      -4.576494       1.000239       6.007704      -0.006000                    
      -4.929680      -0.030184       5.969791       0.103000                    
      -4.654590       1.447995       5.017081       0.103000                    
      -2.855873       1.026882       6.545850      -0.200000                    
      -7.077099       8.197941       0.224007      -0.200000                    
      -6.181107       7.798660      -1.288866      -0.006000                    
      -6.170803       6.718081      -1.430885       0.103000                    
      -6.672861       8.272336      -2.138437       0.103000                    
      -4.744009       8.311984      -1.180960      -0.006000                    
      -4.754306       9.392572      -1.038932       0.103000                    
      -4.252254       7.838308      -0.331390       0.103000                    
      -3.848014       7.912713      -2.693833      -0.200000                    
       8.487268       1.500232      -2.963222      -0.200000                    
       7.945767       0.673084      -4.471031      -0.006000                    
       7.957251      -0.405985      -4.317967       0.103000                    
       6.934167       0.994400      -4.718763       0.103000                    
       8.890533       1.034883      -5.618575      -0.006000                    
       8.879050       2.113952      -5.771637       0.103000                    
       9.902133       0.713567      -5.370842       0.103000                    
       8.349031       0.207735      -7.126383      -0.200000                    
       5.492644      -6.761352      -4.202288      -0.200000                    
       5.280331      -6.617988      -2.417566      -0.006000                    
       6.032647      -5.939676      -2.015247       0.103000                    
       4.285959      -6.228440      -2.199845       0.103000                    
       5.439985      -7.996045      -1.772723      -0.006000                    
       4.687682      -8.674349      -2.175046       0.103000                    
       6.434366      -8.385593      -1.990447       0.103000                    
       5.227683      -7.852683       0.011995      -0.200000                    
       5.053560      -6.845870       5.384350      -0.200000                    
       5.080141      -5.985845       3.799878      -0.006000                    
       4.749321      -6.663400       3.012834       0.103000                    
       4.413301      -5.124758       3.842347       0.103000                    
       6.503908      -5.513249       3.500013      -0.006000                    
       6.834733      -4.835695       4.287044       0.103000                    
       7.170745      -6.374334       3.457534       0.103000                    
       6.530486      -4.653223       1.915532      -0.200000                    
       4.268946      -2.235597      -5.698147      -0.200000                    
       3.783714      -1.293470      -7.156877      -0.006000                    
       3.106327      -1.890979      -7.766854       0.103000                    
       3.281508      -0.376997      -6.847297       0.103000                    
       5.028326      -0.941332      -7.973752      -0.006000                    
       5.705713      -0.343823      -7.363774       0.103000                    
       5.530532      -1.857805      -8.283331       0.103000                    
       4.543094       0.000795      -9.432483      -0.200000                    
      -0.811668      11.604874       4.748651      -0.200000                    
      -1.097680      11.445117       2.975655      -0.006000                    
      -1.662716      12.306396       2.619462       0.103000                    
      -0.140875      11.397780       2.455843       0.103000                    
      -1.890832      10.166274       2.700287      -0.006000                    
      -1.325793       9.304994       3.056489       0.103000                    
      -2.847635      10.213620       3.220098       0.103000                    
      -2.176841      10.006515       0.927301      -0.200000                    
       4.164934       2.561097      -7.196129      -0.200000                    
       4.597752       4.306914      -7.070807      -0.006000                    
       3.879705       4.900992      -7.635966       0.103000                    
       4.578646       4.612054      -6.024647       0.103000                    
       6.000686       4.526587      -7.639958      -0.006000                    
       6.718734       3.932498      -7.074789       0.103000                    
       6.019793       4.221437      -8.686109       0.103000                    
       6.433502       6.272394      -7.514635      -0.200000                    
       2.221806      10.389578      -8.671181      -0.200000                    
       2.958172       9.117156      -7.627321      -0.006000                    
       2.957337       8.165533      -8.158712       0.103000                    
       3.983016       9.395913      -7.382452       0.103000                    
       2.145334       8.981563      -6.338412      -0.006000                    
       2.146175       9.933194      -5.807013       0.103000                    
       1.120503       8.702802      -6.583277       0.103000                    
       2.881712       7.709138      -5.294549      -0.200000                    
      -1.276999       8.825441       9.117983      -0.200000                    
      -2.000913       8.167176       7.603530      -0.006000                    
      -2.454068       7.197413       7.808795       0.103000                    
      -2.763190       8.854267       7.236398       0.103000                    
      -0.908637       8.005154       6.544720      -0.006000                    
      -0.455482       8.974916       6.339454       0.103000                    
      -0.146369       7.318064       6.911855       0.103000                    
      -1.632559       7.346890       5.030270      -0.200000                    
       0.302552       0.023542      -7.154114      -0.200000                    
      -1.485376      -0.048133      -7.375595      -0.006000                    
      -1.823659      -1.078937      -7.270981       0.103000                    
      -1.970270       0.571918      -6.621683       0.103000                    
      -1.847630       0.467899      -8.769449      -0.006000                    
      -1.509354       1.498715      -8.874061       0.103000                    
      -1.362737      -0.152152      -9.523363       0.103000                    
      -3.635567       0.396226      -8.990927      -0.200000                    
      -5.879412       5.586637      -4.012464      -0.200000                    
      -4.934699       6.144814      -5.443163      -0.006000                    
      -5.109506       7.208894      -5.601654       0.103000                    
      -3.872873       5.973083      -5.267235       0.103000                    
      -5.378240       5.365568      -6.682689      -0.006000                    
      -5.203436       4.301488      -6.524209       0.103000                    
      -6.440069       5.537299      -6.858627       0.103000                    
      -4.433539       5.923748      -8.113395      -0.200000                    
      11.249836      -1.516949      -3.358742      -0.200000                    
      11.324709      -2.114455      -1.659223      -0.006000                    
      11.820765      -3.084686      -1.636448       0.103000                    
      11.884252      -1.405638      -1.048960       0.103000                    
       9.905690      -2.254696      -1.105037      -0.006000                    
       9.409636      -1.284465      -1.127812       0.103000                    
       9.346147      -2.963513      -1.715299       0.103000                    
       9.980564      -2.852202       0.594482      -0.200000                    
      10.153815       5.067910       2.998165      -0.200000                    
      10.381172       4.073252       4.484732      -0.006000                    
      11.161845       3.332822       4.310872       0.103000                    
      10.670737       4.719110       5.313555       0.103000                    
       9.071100       3.361378       4.827254      -0.006000                    
       8.290430       4.101817       5.001113       0.103000                    
       8.781538       2.715530       3.998429       0.103000                    
       9.298446       2.366733       6.313814      -0.200000                    
      -7.912667       1.939019      -6.733735      -0.200000                    
      -7.609344       2.542052      -5.061831      -0.006000                    
      -7.145601       1.753423      -4.469419       0.103000                    
      -6.945066       3.405247      -5.101586       0.103000                    
      -8.936011       2.949458      -4.418155      -0.006000                    
      -9.399764       3.738091      -5.010563       0.103000                    
      -9.600299       2.086267      -4.378396       0.103000                    
      -8.632697       3.552494      -2.746248      -0.200000                    
      11.725496       5.483875      -6.409809      -0.200000                    
      10.656199       6.043386      -5.070249      -0.006000                    
      11.038280       5.670333      -4.120075       0.103000                    
      10.636642       7.132989      -5.051619       0.103000                    
       9.239008       5.512183      -5.293286      -0.006000                    
       8.856935       5.885234      -6.243464       0.103000                    
       9.258565       4.422579      -5.311916       0.103000                    
       8.169714       6.071694      -3.953717      -0.200000                    
      -3.410943      -5.642828      -5.674598      -0.200000                    
      -2.673281      -5.344185      -7.292521      -0.006000                    
      -1.719248      -5.866952      -7.359217       0.103000                    
      -3.343290      -5.709648      -8.070635       0.103000                    
      -2.445785      -3.843015      -7.479959      -0.006000                    
      -3.399818      -3.320247      -7.413263       0.103000                    
      -1.775785      -3.477550      -6.701841       0.103000                    
      -1.708131      -3.544379      -9.097870      -0.200000                    
       7.382563      -2.963128      -4.020612      -0.200000                    
       7.837299      -3.767604      -5.568836      -0.006000                    
       7.855793      -4.847914      -5.425477       0.103000                    
       7.107201      -3.515346      -6.337775       0.103000                    
       9.222917      -3.287807      -6.005027      -0.006000                    
       9.204416      -2.207506      -6.148395       0.103000                    
       9.953012      -3.540076      -5.236087       0.103000                    
       9.677652      -4.092283      -7.553250      -0.200000                    
       0.154235      -6.260031       8.196530      -0.200000                    
       0.402767      -4.474947       8.248061      -0.006000                    
       0.640563      -4.170242       9.267151       0.103000                    
       1.224844      -4.203069       7.586096       0.103000                    
      -0.874811      -3.768808       7.790242      -0.006000                    
      -1.112605      -4.073503       6.771151       0.103000                    
      -1.696888      -4.040687       8.452208       0.103000                    
      -0.626279      -1.983725       7.841773      -0.200000                    
       2.328985       6.261306       6.942667      -0.200000                    
       2.977656       6.342101       8.623038      -0.006000                    
       2.256910       6.845641       9.267192       0.103000                    
       3.153416       5.332380       8.993857       0.103000                    
       4.293979       7.121633       8.624571      -0.006000                    
       5.014730       6.618092       7.980428       0.103000                    
       4.118223       8.131352       8.253763       0.103000                    
       4.942655       7.202426      10.304953      -0.200000                    
      -8.921215      -1.597789       1.936575      -0.200000                    
      -9.478468      -0.936179       3.518546      -0.006000                    
      -8.977913       0.012374       3.712548       0.103000                    
     -10.556499      -0.778641       3.487306       0.103000                    
      -9.140656      -1.927771       4.633426      -0.006000                    
      -9.641214      -2.876322       4.439415       0.103000                    
      -8.062622      -2.085299       4.664667       0.103000                    
      -9.697908      -1.266160       6.215397      -0.200000                    
       4.513015      10.501459      -3.382399      -0.200000                    
       6.260786      10.887981      -3.598812      -0.006000                    
       6.430224      11.250188      -4.612735       0.103000                    
       6.554287      11.656875      -2.884261       0.103000                    
       7.094886       9.627557      -3.362134      -0.006000                    
       6.925451       9.265349      -2.348202       0.103000                    
       6.801384       8.858664      -4.076684       0.103000                    
       8.842661      10.014078      -3.578537      -0.200000                    
       9.714193      11.365270       4.564986      -0.200000                    
       8.833615      10.491914       3.256251      -0.006000                    
       7.775789      10.426690       3.510642       0.103000                    
       8.948969      11.032597       2.316916       0.103000                    
       9.409454       9.082510       3.106793      -0.006000                    
      10.467279       9.147742       2.852392       0.103000                    
       9.294097       8.541827       4.046118       0.103000                    
       8.528874       8.209164       1.798048      -0.200000                    
       5.428897       8.425175       5.365906      -0.200000                    