%nprocshared=4                                                                       
%mem=8GB                                                                             
#P pop=chelpg cam-b3lyp/gen scf=qc int=ultrafine charge td(nstates=10)               
                                                                                     
pNA CAM-B3LYP def2-TZVPD Single point - solvent def2-SV(P)                           
                                                                                     
0 1                                                                                  
 C       1.389235       0.000000      -0.000000                                 
 C       0.000000       0.000000      -0.000000                                 
 C      -0.711164       1.193419       0.000000                                 
 C      -0.034074       2.386367       0.000141                                 
 C       1.370482       2.412065       0.000933                                 
 C       2.067428       1.192342       0.000144                                 
 H       1.924301      -0.937208       0.000967                                 
 H      -1.790186       1.173300       0.000962                                 
 H      -0.583208       3.318526      -0.000772                                 
 H       3.149318       1.197759      -0.000767                                 
 N      -0.711160      -1.251627       0.001756                                 
 O      -1.932441      -1.229701       0.002542                                 
 O      -0.067142      -2.289538       0.002483                                 
 N       2.040236       3.590780      -0.024683                                 
 H       1.546357       4.451509       0.132529                                 
 H       3.032458       3.607145       0.132525                                 
Cl      -2.678543       6.634399       1.304270                                 
 C      -0.913454       6.664060       1.670929                                 
 H      -0.665500       7.589652       2.190305                                 
 H      -0.659034       5.813238       2.302812                                 
 C      -0.120032       6.584262       0.365373                                 
 H      -0.367986       5.658672      -0.153994                                 
 H      -0.374452       7.435085      -0.266510                                 
Cl       1.645057       6.613924       0.732042                                 
Cl       4.434994       5.770718      -1.654040                                 
 C       4.273582       4.200572      -2.525503                                 
 H       4.390506       3.378919      -1.818991                                 
 H       3.289750       4.142565      -2.991001                                 
 C       5.354016       4.102585      -3.604119                                 
 H       5.237098       4.924229      -4.310630                                 
 H       6.337848       4.160590      -3.138631                                 
Cl       5.192603       2.532438      -4.475582                                 
Cl       8.430561       4.576787       4.211175                                 
 C       6.973064       4.969492       3.225033                                 
 H       6.292762       5.586833       3.811597                                 
 H       7.275474       5.511928       2.329333                                 
 C       6.266060       3.674154       2.821784                                 
 H       6.946369       3.056818       2.235219                                 
 H       5.963657       3.131722       3.717483                                 
Cl       4.808569       4.066864       1.835641                                 
Cl      -5.364065      -0.848923       0.155992                                 
 C      -4.768041      -2.350636      -0.644327                                 
 H      -3.991034      -2.094907      -1.364605                                 
 H      -4.359001      -3.025480       0.107464                                 
 C      -5.927665      -3.037331      -1.368300                                 
 H      -6.704672      -3.293061      -0.648032                                 
 H      -6.336705      -2.362488      -2.120090                                 
Cl      -5.331633      -4.539037      -2.168619                                 
Cl      -0.363736      -5.674595      -1.129840                                 
 C      -1.555780      -5.283131       0.165023                                 
 H      -1.090075      -5.418877       1.141049                                 
 H      -1.881742      -4.248556       0.058450                                 
 C      -2.764424      -6.213088       0.043561                                 
 H      -3.230129      -6.077343      -0.932475                                 
 H      -2.438463      -7.247662       0.150134                                 
Cl      -3.956469      -5.821624       1.338413                                 
                                                                                
       2.750340      -3.024890       2.085771      -0.200000                    
       2.561112      -4.523882       1.101825      -0.006000                    
       3.114753      -5.338003       1.569391       0.103000                    
       1.505586      -4.789019       1.042518       0.103000                    
       3.105281      -4.281067      -0.307184      -0.006000                    
       2.551641      -3.466932      -0.774751       0.103000                    
       4.160807      -4.015929      -0.247877       0.103000                    
       2.916053      -5.780058      -1.291130      -0.200000                    
      -3.127103       2.527695       2.164892      -0.200000                    
      -2.899351       1.197554       3.360642      -0.006000                    
      -3.350044       0.282441       2.976739       0.103000                    
      -1.834267       1.036368       3.526680       0.103000                    
      -3.568817       1.579614       4.682071      -0.006000                    
      -3.118117       2.494734       5.065974       0.103000                    
      -4.633894       1.740807       4.516033       0.103000                    
      -3.341058       0.249479       5.877821      -0.200000                    
       5.758604      -0.726542       1.017453      -0.200000                    
       5.060613      -0.359282       2.638845      -0.006000                    
       4.399025       0.503568       2.562897       0.103000                    
       4.495437      -1.220527       2.994940       0.103000                    
       6.190805      -0.049644       3.622305      -0.006000                    
       6.852386      -0.912485       3.698252       0.103000                    
       6.755967       0.811602       3.266209       0.103000                    
       5.492807       0.317624       5.243706      -0.200000                    
       0.616856      -2.575508      -4.998834      -0.200000                    
       1.460653      -1.837736      -3.586497      -0.006000                    
       1.009813      -0.872233      -3.357348       0.103000                    
       1.368046      -2.496319      -2.722978       0.103000                    
       2.940429      -1.642266      -3.921695      -0.006000                    
       3.391270      -2.607769      -4.150843       0.103000                    
       3.033045      -0.983676      -4.785203       0.103000                    
       3.784227      -0.904494      -2.509358      -0.200000                    
      -0.925754       4.359810      -2.902482      -0.200000                    
      -1.151570       5.760624      -4.014959      -0.006000                    
      -0.426399       6.537536      -3.773146       0.103000                    
      -1.005214       5.434469      -5.044604       0.103000                    
      -2.567360       6.317158      -3.853261      -0.006000                    
      -3.292531       5.540245      -4.095085       0.103000                    
      -2.713716       6.643312      -2.823626       0.103000                    
      -2.793167       7.717977      -4.965749      -0.200000                    
      -2.821048      -2.791110       2.919806      -0.200000                    
      -1.660083      -3.225285       4.229233      -0.006000                    
      -1.887892      -2.645986       5.123917       0.103000                    
      -1.745509      -4.288569       4.453044       0.103000                    
      -0.234248      -2.914271       3.770329      -0.006000                    
      -0.006446      -3.493562       2.875645       0.103000                    
      -0.148822      -1.850986       3.546517       0.103000                    
       0.926710      -3.348438       5.079756      -0.200000                    
      -6.705676       0.650135      -2.856697      -0.200000                    
      -4.906882       0.763382      -2.905700      -0.006000                    
      -4.613564       1.780113      -3.166796       0.103000                    
      -4.499678       0.507337      -1.927658       0.103000                    
      -4.363100      -0.208817      -3.954271      -0.006000                    
      -4.656412      -1.225556      -3.693174       0.103000                    
      -4.770299       0.047220      -4.932302       0.103000                    
      -2.564307      -0.095569      -4.003264      -0.200000                    
       3.781115       3.805507       6.621728      -0.200000                    
       3.142564       3.313244       5.009021      -0.006000                    
       3.162447       4.168437       4.333628       0.103000                    
       3.761242       2.513749       4.601604       0.103000                    
       1.703398       2.816923       5.160253      -0.006000                    
       1.683509       1.961739       5.835646       0.103000                    
       1.084720       3.616417       5.567660       0.103000                    
       1.064841       2.324668       3.547545      -0.200000                    
       1.169424       2.013801      -3.971502      -0.200000                    
       1.073827       1.882793      -5.767213      -0.006000                    
       1.818667       1.169523      -6.119897       0.103000                    
       0.079273       1.541776      -6.054441       0.103000                    
       1.343348       3.252306      -6.393472      -0.006000                    
       0.598509       3.965576      -6.040787       0.103000                    
       2.337902       3.593324      -6.106243       0.103000                    
       1.247746       3.121306      -8.189184      -0.200000                    
      -8.504642       2.917790       1.051365      -0.200000                    
      -7.062097       3.969729       0.799564      -0.006000                    
      -7.370794       4.904047       0.330832       0.103000                    
      -6.594873       4.182349       1.761059       0.103000                    
      -6.059657       3.252222      -0.106336      -0.006000                    
      -5.750957       2.317917       0.362394       0.103000                    
      -6.526872       3.039607      -1.067832       0.103000                    
      -4.617111       4.304160      -0.358137      -0.200000                    
       8.516002       2.571546       0.152693      -0.200000                    
       8.058337       1.884161      -1.450119      -0.006000                    
       6.973991       1.904682      -1.558300       0.103000                    
       8.514108       2.476618      -2.243348       0.103000                    
       8.552512       0.439471      -1.545294      -0.006000                    
       9.636858       0.418949      -1.437123       0.103000                    
       8.096741      -0.152987      -0.752075       0.103000                    
       8.094854      -0.247909      -3.148107      -0.200000                    
       7.163084       8.289627       1.925473      -0.200000                    
       5.509971       8.336708       1.207273      -0.006000                    
       5.317050       7.403987       0.677416       0.103000                    
       4.772708       8.463775       1.999887       0.103000                    
       5.412501       9.508250       0.228311      -0.006000                    
       5.605419      10.440958       0.758179       0.103000                    
       6.149769       9.381177      -0.564292       0.103000                    
       3.759387       9.555333      -0.489880      -0.200000                    
       2.290675       7.880659       4.062621      -0.200000                    
       1.016234       7.372046       5.232226      -0.006000                    
       0.273789       8.164203       5.328188       0.103000                    
       0.533947       6.463437       4.872057       0.103000                    
       1.654062       7.103708       6.596617      -0.006000                    
       2.396514       6.311544       6.500657       0.103000                    
       2.136355       8.012310       6.956788       0.103000                    
       0.379621       6.595095       7.766222      -0.200000                    
       2.474840       6.099335      -5.280604      -0.200000                    
       3.310295       7.679091      -5.520211      -0.006000                    
       4.298514       7.506789      -5.946443       0.103000                    
       2.725320       8.300626      -6.198047       0.103000                    
       3.453430       8.389737      -4.173021      -0.006000                    
       2.465204       8.562034      -3.746789       0.103000                    
       4.038405       7.768203      -3.495175       0.103000                    
       4.288891       9.969485      -4.412616      -0.200000                    
      -4.865949      -7.300803      -3.994379      -0.200000                    
      -3.408340      -7.266464      -5.055092      -0.006000                    
      -2.893476      -8.225341      -4.996636       0.103000                    
      -3.712409      -7.079265      -6.084890       0.103000                    
      -2.466578      -6.153506      -4.591693      -0.006000                    
      -2.981443      -5.194629      -4.650149       0.103000                    
      -2.162508      -6.340704      -3.561896       0.103000                    
      -1.008976      -6.119158      -5.652398      -0.200000                    
       5.538556      -4.319887       3.724497      -0.200000                    
       5.584805      -3.573781       5.365250      -0.006000                    
       6.215833      -4.174468       6.020142       0.103000                    
       5.990786      -2.564759       5.294507       0.103000                    
       4.167605      -3.513640       5.938221      -0.006000                    
       3.536569      -2.912958       5.283340       0.103000                    
       3.761617      -4.522668       6.008965       0.103000                    
       4.213854      -2.767534       7.578975      -0.200000                    
      -0.247608       9.871580      -1.805341      -0.200000                    
       0.480701      11.017912      -0.619392      -0.006000                    
       0.862576      10.461618       0.236552       0.103000                    
       1.297812      11.561325      -1.093710       0.103000                    
      -0.584742      12.009480      -0.148248      -0.006000                    
      -0.966618      12.565772      -1.004201       0.103000                    
      -1.401852      11.466065       0.326061       0.103000                    
       0.143567      13.155810       1.037692      -0.200000                    
      -0.353831      -8.749340      -2.835685      -0.200000                    
       1.046314      -8.079437      -3.753155      -0.006000                    
       0.895351      -8.246011      -4.819641       0.103000                    
       1.129099      -7.009907      -3.560385       0.103000                    
       2.331088      -8.778737      -3.305191      -0.006000                    
       2.482050      -8.612164      -2.238705       0.103000                    
       2.248288      -9.848266      -3.497962       0.103000                    
       3.731219      -8.108833      -4.222672      -0.200000                    
      -0.150123     -12.338743       1.481388      -0.200000                    
      -0.076526     -10.560791       1.771709      -0.006000                    
      -1.047381     -10.116212       1.553207       0.103000                    
       0.183171     -10.372938       2.813437       0.103000                    
       0.984767      -9.939064       0.862071      -0.006000                    
       1.955616     -10.383635       1.080572       0.103000                    
       0.725058     -10.126915      -0.179668       0.103000                    
       1.058357      -8.161103       1.152391      -0.200000                    
      -5.326659      -5.221953       6.828006      -0.200000                    
      -5.726761      -4.166594       5.421946      -0.006000                    
      -6.072314      -3.197429       5.781494       0.103000                    
      -4.838383      -4.029989       4.805458       0.103000                    
      -6.828945      -4.823338       4.588742      -0.006000                    
      -6.483385      -5.792496       4.229193       0.103000                    
      -7.717324      -4.959944       5.205220       0.103000                    
      -7.229049      -3.767978       3.182681      -0.200000                    
      12.402997       6.369855       1.361723      -0.200000                    
      10.868840       5.715843       0.676583      -0.006000                    
      11.068107       4.766239       0.180107       0.103000                    
      10.148398       5.561975       1.479859       0.103000                    
      10.297939       6.710211      -0.336154      -0.006000                    
      10.098674       7.659815       0.160321       0.103000                    
      11.018381       6.864079      -1.139431       0.103000                    
       8.763783       6.056198      -1.021295      -0.200000                    
      -3.759559      -1.110276      -7.944050      -0.200000                    
      -2.150099      -0.387616      -7.572104      -0.006000                    
      -2.151372       0.665969      -7.851155       0.103000                    
      -1.947452      -0.480910      -6.505256       0.103000                    
      -1.066102      -1.122653      -8.362716      -0.006000                    
      -1.064837      -2.176245      -8.083665       0.103000                    
      -1.268757      -1.029365      -9.429564       0.103000                    
       0.543349      -0.400000      -7.990770      -0.200000                    
      -6.621827       3.217304      -9.454345      -0.200000                    
      -5.170941       2.795513      -8.470490      -0.006000                    
      -4.914649       1.748383      -8.631073       0.103000                    
      -4.333036       3.424933      -8.769990       0.103000                    
      -5.475550       3.023966      -6.988811      -0.006000                    
      -5.731855       4.071098      -6.828228       0.103000                    
      -6.313462       2.394541      -6.689309       0.103000                    
      -4.024672       2.602170      -6.004954      -0.200000                    
       0.997024      -8.653818       5.181672      -0.200000                    
       1.258395      -6.940506       5.678828      -0.006000                    
       2.236482      -6.606641       5.332624       0.103000                    
       0.483429      -6.312289       5.239850       0.103000                    
       1.195113      -6.836741       7.203824      -0.006000                    
       0.217040      -7.170607       7.550038       0.103000                    
       1.970086      -7.464964       7.642814       0.103000                    
       1.456491      -5.123421       7.700989      -0.200000                    
      -5.682557       6.370510      -2.970273      -0.200000                    
      -6.808134       7.436995      -2.050185      -0.006000                    
      -7.787173       6.962423      -1.985318       0.103000                    
      -6.415800       7.599783      -1.046438       0.103000                    
      -6.940026       8.780607      -2.769670      -0.006000                    
      -5.960988       9.255178      -2.834538       0.103000                    
      -7.332361       8.617818      -3.773417       0.103000                    
      -8.065603       9.847091      -1.849592      -0.200000                    
      -5.118079       4.663381       4.826074      -0.200000                    
      -4.707681       5.033307       6.542370      -0.006000                    
      -5.585670       5.435603       7.047556       0.103000                    
      -4.385808       4.120802       7.044039       0.103000                    
      -3.578056       6.064066       6.585791      -0.006000                    
      -2.700067       5.661770       6.080605       0.103000                    
      -3.899936       6.976579       6.084121       0.103000                    
      -3.167658       6.433992       8.302087      -0.200000                    
       7.501293      -4.905686       0.268230      -0.200000                    
       7.990141      -6.581000      -0.184903      -0.006000                    
       9.040155      -6.733370       0.064535       0.103000                    
       7.378701      -7.298632       0.361986       0.103000                    
       7.789327      -6.781820      -1.688146      -0.006000                    
       6.739312      -6.629450      -1.937575       0.103000                    
       8.400760      -6.064180      -2.235027       0.103000                    
       8.278168      -8.457126      -2.141271      -0.200000                    
      -4.259838     -11.147076       4.556754      -0.200000                    
      -3.046987      -9.840195       4.288447      -0.006000                    
      -2.192112      -9.996949       4.946137       0.103000                    
      -2.715394      -9.859456       3.250369       0.103000                    
      -3.683368      -8.483171       4.594825      -0.006000                    
      -4.538236      -8.326426       3.937135       0.103000                    
      -4.014960      -8.463911       5.632903       0.103000                    
      -2.470517      -7.176303       4.326519      -0.200000                    
      -8.267879      -3.107589      -4.831872      -0.200000                    
      -7.387272      -3.999409      -6.128048      -0.006000                    
      -7.773253      -5.016424      -6.196269       0.103000                    
      -7.531356      -3.491150      -7.081383       0.103000                    
      -5.894980      -4.042266      -5.794044      -0.006000                    
      -5.509000      -3.025252      -5.725822       0.103000                    
      -5.750897      -4.550525      -4.840699       0.103000                    
      -5.014375      -4.934100      -7.090209      -0.200000                    
      10.422684      -4.745347       1.856734      -0.200000                    
       9.659195      -3.130935       1.608332      -0.006000                    
       9.652288      -2.891760       0.544994       0.103000                    
       8.635917      -3.151139       1.983088       0.103000                    
      10.457711      -2.067460       2.364483      -0.006000                    
      10.464613      -2.306629       3.427811       0.103000                    
      11.480998      -2.047251       1.989717       0.103000                    
       9.694231      -0.453042       2.116071      -0.200000                    
       6.856190      10.978036       3.909539      -0.200000                    
       6.425185      10.166201       5.460687      -0.006000                    
       7.333508       9.824811       5.957007       0.103000                    
       5.900908      10.870641       6.106321       0.103000                    
       5.519761       8.966845       5.174118      -0.006000                    
       4.611440       9.308235       4.677797       0.103000                    
       6.044032       8.262412       4.528483       0.103000                    
       5.088748       8.155004       6.725267      -0.200000                    
      -9.226688      -4.722544      -1.424488      -0.200000                    
      -9.021593      -5.034254       0.339518      -0.006000                    
      -7.974642      -4.902861       0.612624       0.103000                    
      -9.635717      -4.334499       0.906192       0.103000                    
      -9.455289      -6.466296       0.658101      -0.006000                    
     -10.502239      -6.597688       0.384995       0.103000                    
      -8.841159      -7.166059       0.091418       0.103000                    
      -9.250193      -6.778006       2.422097      -0.200000                    
      -2.301345      11.684119      -3.795470      -0.200000                    
      -1.566400      11.201803      -5.369664      -0.006000                    
      -2.282882      10.610118      -5.939323       0.103000                    
      -1.300685      12.094601      -5.935570       0.103000                    
      -0.309135      10.369304      -5.111644      -0.006000                    
       0.407347      10.960987      -4.541986       0.103000                    
      -0.574852       9.476506      -4.545739       0.103000                    
       0.425815       9.886982      -6.685837      -0.200000                    
      -5.788606      13.258848       0.852986      -0.200000                    
      -5.093197      12.077191      -0.317955      -0.006000                    
      -5.792648      11.925315      -1.139917       0.103000                    
      -4.151724      12.463357      -0.708364       0.103000                    
      -4.842562      10.744619       0.390444      -0.006000                    
      -4.143106      10.896489       1.212417       0.103000                    
      -5.784035      10.358454       0.780853       0.103000                    
      -4.147153       9.562963      -0.780497      -0.200000                    
       8.712762      -6.132577      -5.039373      -0.200000                    
       7.590701      -4.872014      -5.674101      -0.006000                    
       7.848448      -4.643188      -6.708094       0.103000                    
       6.566073      -5.240748      -5.627892       0.103000                    
       7.714847      -3.604989      -4.825804      -0.006000                    
       7.457094      -3.833807      -3.791813       0.103000                    
       8.739468      -3.236245      -4.872015       0.103000                    
       6.592780      -2.344419      -5.460543      -0.200000                    
     -10.762002      -1.356206      -2.141973      -0.200000                    
     -11.133300      -1.215427      -0.383215      -0.006000                    
     -12.202398      -1.050903      -0.249370       0.103000                    
     -10.840414      -2.134133       0.124882       0.103000                    
     -10.358472      -0.036635       0.208781      -0.006000                    
      -9.289368      -0.201165       0.074946       0.103000                    
     -10.651359       0.882071      -0.299317       0.103000                    
     -10.729771       0.104144       1.967538      -0.200000                    
       4.528265      -2.641484      -9.615337      -0.200000                    
       5.459383      -1.262630      -8.920589      -0.006000                    
       6.344393      -1.642102      -8.409984       0.103000                    
       5.762787      -0.588519      -9.721530       0.103000                    
       4.581051      -0.505442      -7.922816      -0.006000                    
       3.696041      -0.125970      -8.433421       0.103000                    
       4.277655      -1.179548      -7.121884       0.103000                    
       5.512169       0.873412      -7.228067      -0.200000                    
       0.790902      -5.204283      -9.788641      -0.200000                    
       1.545272      -4.381613      -8.372628      -0.006000                    
       1.728555      -3.334997      -8.615372       0.103000                    
       0.874328      -4.444035      -7.515956       0.103000                    
       2.870849      -5.065305      -8.032334      -0.006000                    
       2.687571      -6.111927      -7.789580       0.103000                    
       3.541798      -5.002889      -8.888996       0.103000                    
       3.625224      -4.242641      -6.616311      -0.200000                    
       9.430301      -0.852425      -7.335563      -0.200000                    