%nprocshared=4                                                                       
%mem=8GB                                                                             
#P pop=chelpg cam-b3lyp/gen scf=qc int=ultrafine charge td(nstates=10)               
                                                                                     
pNA CAM-B3LYP def2-TZVPD Single point - solvent def2-SV(P)                           
                                                                                     
0 1                                                                                  
 C       1.389235       0.000000      -0.000000                                 
 C       0.000000       0.000000      -0.000000                                 
 C      -0.711164       1.193419       0.000000                                 
 C      -0.034074       2.386367       0.000141                                 
 C       1.370482       2.412065       0.000933                                 
 C       2.067428       1.192342       0.000144                                 
 H       1.924301      -0.937208       0.000967                                 
 H      -1.790186       1.173300       0.000962                                 
 H      -0.583208       3.318526      -0.000772                                 
 H       3.149318       1.197759      -0.000767                                 
 N      -0.711160      -1.251627       0.001756                                 
 O      -1.932441      -1.229701       0.002542                                 
 O      -0.067142      -2.289538       0.002483                                 
 N       2.040236       3.590780      -0.024683                                 
 H       1.546357       4.451509       0.132529                                 
 H       3.032458       3.607145       0.132525                                 
Cl       5.048315       2.930085       2.413920                                 
 C       5.242418       1.140094       2.317781                                 
 H       5.233364       0.718888       3.323001                                 
 H       4.422300       0.716038       1.738509                                 
 C       6.571809       0.807106       1.637873                                 
 H       6.580863       1.228311       0.632652                                 
 H       7.391921       1.231156       2.217139                                 
Cl       6.765907      -0.982891       1.541728                                 
Cl       8.137669       6.253780      -0.812335                                 
 C       6.538752       5.500674      -1.169078                                 
 H       5.757304       6.032098      -0.626076                                 
 H       6.340776       5.557519      -2.239365                                 
 C       6.556492       4.034874      -0.731467                                 
 H       7.337939       3.503451      -1.274469                                 
 H       6.754468       3.978029       0.338820                                 
Cl       4.957575       3.281768      -1.088210                                 
Cl      -6.025245       0.692052       1.460302                                 
 C      -5.047511       2.191335       1.677200                                 
 H      -5.654883       2.954243       2.164042                                 
 H      -4.176623       1.971345       2.294525                                 
 C      -4.587253       2.702123       0.310589                                 
 H      -3.979873       1.939214      -0.176259                                 
 H      -5.458127       2.922117      -0.306736                                 
Cl      -3.609511       4.201405       0.527481                                 
Cl      -0.155852       6.071960       0.000603                                 
 C      -1.500185       6.970248      -0.797361                                 
 H      -1.709297       6.523660      -1.769349                                 
 H      -2.392637       6.918294      -0.173831                                 
 C      -1.094748       8.433311      -0.985582                                 
 H      -0.885643       8.879900      -0.013589                                 
 H      -0.202303       8.485267      -1.609106                                 
Cl      -2.439082       9.331607      -1.783535                                 
Cl      -1.958838      -2.832646       3.206224                                 
 C      -3.312101      -3.275673       2.100170                                 
 H      -4.115282      -3.736736       2.674860                                 
 H      -3.686637      -2.378988       1.606587                                 
 C      -2.807252      -4.263716       1.046969                                 
 H      -2.004071      -3.802653       0.472279                                 
 H      -2.432711      -5.160395       1.540558                                 
Cl      -4.160515      -4.706742      -0.059085                                 
                                                                                
       0.329674      -6.853014      -0.855057      -0.200000                    
       1.348825      -6.437527       0.573097      -0.006000                    
       1.002540      -6.997022       1.441996       0.103000                    
       2.387533      -6.694411       0.365595       0.103000                    
       1.241840      -4.938095       0.856980      -0.006000                    
       1.588117      -4.378599      -0.011913       0.103000                    
       0.203132      -4.681212       1.064482       0.103000                    
       2.260991      -4.522608       2.285134      -0.200000                    
      -6.124780      -2.404800      -1.298251      -0.200000                    
      -4.903848      -1.114194      -1.605724      -0.006000                    
      -4.827692      -0.469702      -0.730081       0.103000                    
      -3.934768      -1.570847      -1.806433       0.103000                    
      -5.335005      -0.281957      -2.814814      -0.006000                    
      -5.411169      -0.926448      -3.690451       0.103000                    
      -6.304085       0.174696      -2.614106       0.103000                    
      -4.114070       1.008662      -3.122287      -0.200000                    
      -0.449968       2.072118      -4.632608      -0.200000                    
       0.796478       2.971684      -3.690185      -0.006000                    
       0.659803       2.775711      -2.626756       0.103000                    
       1.790023       2.643673      -3.995544       0.103000                    
       0.651563       4.471501      -3.954513      -0.006000                    
       0.788238       4.667474      -5.017942       0.103000                    
      -0.341982       4.799512      -3.649154       0.103000                    
       1.898001       5.371069      -3.012084      -0.200000                    
       4.795721      -0.885466      -1.213366      -0.200000                    
       4.053875      -1.104382      -2.842063      -0.006000                    
       4.735829      -1.666927      -3.479566       0.103000                    
       3.115149      -1.649413      -2.743713       0.103000                    
       3.784479       0.265309      -3.467964      -0.006000                    
       3.102516       0.827856      -2.830455       0.103000                    
       4.723203       0.810348      -3.566319       0.103000                    
       3.042630       0.046401      -5.096666      -0.200000                    
       2.738107       1.613684       6.929114      -0.200000                    
       2.968857       2.477007       5.363093      -0.006000                    
       3.541647       3.388860       5.531580       0.103000                    
       3.507450       1.832452       4.668521       0.103000                    
       1.603892       2.834731       4.772078      -0.006000                    
       1.031094       1.922879       4.603596       0.103000                    
       1.065291       3.479288       5.466657       0.103000                    
       1.834642       3.698054       3.206057      -0.200000                    
       3.781981       6.976278       5.335796      -0.200000                    
       3.895387       7.832529       3.753136      -0.006000                    
       3.491533       8.839746       3.854915       0.103000                    
       4.939113       7.888839       3.444186       0.103000                    
       3.093065       7.066013       2.700000      -0.006000                    
       3.496925       6.058802       2.598209       0.103000                    
       2.049345       7.009708       3.008955       0.103000                    
       3.206469       7.922271       1.117335      -0.200000                    
       4.481558      -2.793615       6.467473      -0.200000                    
       4.124862      -1.679645       5.095338      -0.006000                    
       4.516461      -0.687858       5.320984       0.103000                    
       4.595045      -2.058374       4.187903       0.103000                    
       2.611585      -1.594691       4.887630      -0.006000                    
       2.219988      -2.586487       4.661989       0.103000                    
       2.141405      -1.215971       5.795069       0.103000                    
       2.254889      -0.480721       3.515495      -0.200000                    
       0.054206      -3.821137      -3.537246      -0.200000                    
      -1.699569      -3.994742      -3.918088      -0.006000                    
      -1.836020      -4.793617      -4.646870       0.103000                    
      -2.247277      -4.236122      -3.007202       0.103000                    
      -2.228084      -2.681121      -4.497284      -0.006000                    
      -2.091634      -1.882245      -3.768520       0.103000                    
      -1.680377      -2.439741      -5.408171       0.103000                    
      -3.981859      -2.854726      -4.878126      -0.200000                    
       4.090501      -5.406308      -4.602490      -0.200000                    
       4.180266      -5.793174      -2.843737      -0.006000                    
       3.207294      -6.142251      -2.498139       0.103000                    
       4.925006      -6.572025      -2.680349       0.103000                    
       4.577017      -4.537562      -2.065037      -0.006000                    
       5.549987      -4.188477      -2.410641       0.103000                    
       3.832277      -3.758711      -2.228425       0.103000                    
       4.666782      -4.924428      -0.306284      -0.200000                    
      -4.244011      -0.167024       3.900215      -0.200000                    
      -3.088031      -0.547753       5.230484      -0.006000                    
      -3.489572      -0.184167       6.176270       0.103000                    
      -2.942372      -1.626350       5.288000       0.103000                    
      -1.746901       0.133199       4.951091      -0.006000                    
      -1.345358      -0.230373       4.005305       0.103000                    
      -1.892555       1.211801       4.893580       0.103000                    
      -0.590911      -0.247518       6.281353      -0.200000                    
      -5.782321       3.861867      -6.957280      -0.200000                    
      -5.322523       4.303447      -5.270713      -0.006000                    
      -5.640715       5.324918      -5.062717       0.103000                    
      -5.807222       3.622171      -4.571512       0.103000                    
      -3.804363       4.200625      -5.112544      -0.006000                    
      -3.486186       3.179151      -5.320540       0.103000                    
      -3.319662       4.881894      -5.811740       0.103000                    
      -3.344562       4.642199      -3.425971      -0.200000                    
      -3.932142       2.932406       4.868873      -0.200000                    
      -3.301134       4.621165       4.897380      -0.006000                    
      -3.281274       4.984585       5.924741       0.103000                    
      -2.292059       4.639239       4.485797       0.103000                    
      -4.210330       5.519510       4.056740      -0.006000                    
      -4.230181       5.156088       3.029372       0.103000                    
      -5.219405       5.501436       4.468322       0.103000                    
      -3.579322       7.208269       4.085247      -0.200000                    
       3.021393      10.025282      -3.011796      -0.200000                    
       4.072904      10.335053      -1.580262      -0.006000                    
       4.497202      11.336531      -1.650700       0.103000                    
       3.479878      10.254689      -0.669331       0.103000                    
       5.202913       9.304399      -1.545014      -0.006000                    
       4.778617       8.302913      -1.474570       0.103000                    
       5.795936       9.384748      -2.455945       0.103000                    
       6.254425       9.614163      -0.113492      -0.200000                    
       1.799578      -7.964214       4.282078      -0.200000                    
       0.734995      -7.083468       5.440486      -0.006000                    
      -0.295156      -7.118398       5.086222       0.103000                    
       0.798137      -7.553535       6.421793       0.103000                    
       1.189096      -5.626211       5.543528      -0.006000                    
       2.219247      -5.591280       5.897791       0.103000                    
       1.125955      -5.156149       4.562208       0.103000                    
       0.124520      -4.745466       6.701929      -0.200000                    
      -6.358808      -3.000850       4.474114      -0.200000                    
      -7.570381      -2.188081       3.414685      -0.006000                    
      -8.505397      -2.063513       3.960758       0.103000                    
      -7.192508      -1.211210       3.113203       0.103000                    
      -7.816828      -3.044800       2.171436      -0.006000                    
      -6.881824      -3.169380       1.625368       0.103000                    
      -8.194714      -4.021674       2.472917       0.103000                    
      -9.028401      -2.232030       1.112006      -0.200000                    
      -0.207170       6.691898       5.310664      -0.200000                    
       0.067411       8.473457       5.269896      -0.006000                    
       1.085704       8.691827       5.591373       0.103000                    
      -0.079925       8.840898       4.254403       0.103000                    
      -0.922644       9.163643       6.210031      -0.006000                    
      -1.940927       8.945262       5.888552       0.103000                    
      -0.775306       8.796194       7.225529       0.103000                    
      -0.648061      10.945193       6.169267      -0.200000                    
       8.010889      -0.569666      -4.229398      -0.200000                    
       7.128427       0.074413      -5.663761      -0.006000                    
       7.582493      -0.314863      -6.574936       0.103000                    
       6.084275      -0.234638      -5.617168       0.103000                    
       7.207793       1.602182      -5.667559      -0.006000                    
       6.753719       1.991460      -4.756378       0.103000                    
       8.251945       1.911233      -5.714151       0.103000                    
       6.325321       2.246264      -7.101914      -0.200000                    
      -8.197839       5.577387      -3.820809      -0.200000                    
      -8.269768       5.563239      -2.019261      -0.006000                    
      -8.891778       6.388865      -1.673731       0.103000                    
      -8.696742       4.619600      -1.679838       0.103000                    
      -6.857624       5.716941      -1.451311      -0.006000                    
      -6.235616       4.891301      -1.796842       0.103000                    
      -6.430653       6.660567      -1.790734       0.103000                    
      -6.929556       5.702779       0.350236      -0.200000                    
      10.426754      -1.787989       0.426645      -0.200000                    
       9.943231      -3.026134      -0.791579      -0.006000                    
       9.862911      -2.558689      -1.772879       0.103000                    
      10.693940      -3.815604      -0.825286       0.103000                    
       8.591044      -3.625363      -0.400585      -0.006000                    
       8.671350      -4.092812       0.580715       0.103000                    
       7.840330      -2.835899      -0.366884       0.103000                    
       8.107507      -4.863512      -1.618809      -0.200000                    
       4.402062       4.914833      -5.970181      -0.200000                    
       4.435531       6.717072      -5.928172      -0.006000                    
       4.313491       7.106639      -6.938751       0.103000                    
       3.624372       7.081174      -5.297750       0.103000                    
       5.774578       7.189092      -5.358523      -0.006000                    
       5.896624       6.799531      -4.347938       0.103000                    
       6.585746       6.824987      -5.988934       0.103000                    
       5.808046       8.991331      -5.316514      -0.200000                    
       6.769533       7.255918       7.227134      -0.200000                    
       6.862780       5.656908       6.399319      -0.006000                    
       7.396102       4.949419       7.034127       0.103000                    
       5.855447       5.286777       6.208896       0.103000                    
       7.607677       5.812432       5.072194      -0.006000                    
       7.074363       6.519919       4.437398       0.103000                    
       8.615011       6.182555       5.262623       0.103000                    
       7.700929       4.213429       4.244386      -0.200000                    
       7.716763       4.604084      -4.128751      -0.200000                    
       8.918719       5.337657      -5.254831      -0.006000                    
       8.492559       5.391866      -6.256539       0.103000                    
       9.172217       6.340995      -4.912791       0.103000                    
      10.181986       4.475321      -5.284678      -0.006000                    
      10.608141       4.421107      -4.282976       0.103000                    
       9.928487       3.471984      -5.626718       0.103000                    
      11.383938       5.208889      -6.410764      -0.200000                    
      -3.674011      -7.874963      -5.584284      -0.200000                    
      -2.042610      -7.815411      -4.818828      -0.006000                    
      -2.014772      -7.010566      -4.084398       0.103000                    
      -1.837750      -8.765288      -4.325179       0.103000                    
      -0.984027      -7.561157      -5.893588      -0.006000                    
      -1.011864      -8.366002      -6.628018       0.103000                    
      -1.188893      -6.611285      -6.387243       0.103000                    
       0.647369      -7.501611      -5.128139      -0.200000                    
      -3.989320      -6.316946       3.601443      -0.200000                    
      -5.247570      -7.383643       2.873608      -0.006000                    
      -5.722022      -7.973553       3.657715       0.103000                    
      -5.998579      -6.771590       2.374281       0.103000                    
      -4.594996      -8.320616       1.855487      -0.006000                    
      -4.120555      -7.730696       1.071380       0.103000                    
      -3.843997      -8.932659       2.354815       0.103000                    
      -5.853256      -9.387302       1.127653      -0.200000                    
      12.765267       1.370717      -1.450285      -0.200000                    
      11.882535       2.319045      -0.196331      -0.006000                    
      12.421582       2.261746       0.749227       0.103000                    
      11.810678       3.359982      -0.511363       0.103000                    
      10.476747       1.742877      -0.017003      -0.006000                    
       9.937709       1.800174      -0.962568       0.103000                    
      10.548617       0.701944       0.298028       0.103000                    
       9.594018       2.691219       1.236951      -0.200000                    
      -0.423851      12.228843      -5.469940      -0.200000                    
      -0.397940      10.524410      -4.882445      -0.006000                    
       0.439651      10.388296      -4.198442       0.103000                    
      -1.330734      10.304572      -4.363265       0.103000                    
      -0.242238       9.576867      -6.073355      -0.006000                    
      -1.079838       9.712984      -6.757353       0.103000                    
       0.690548       9.796708      -6.592529       0.103000                    
      -0.216333       7.872429      -5.485867      -0.200000                    
       7.179446      -0.706942       5.166761      -0.200000                    
       8.796276       0.090972       5.174007      -0.006000                    
       8.705674       1.099761       4.771459       0.103000                    
       9.173120       0.139657       6.195547       0.103000                    
       9.767341      -0.716632       4.310762      -0.006000                    
       9.857944      -1.725420       4.713309       0.103000                    
       9.390502      -0.765309       3.289211       0.103000                    
      11.384180       0.081282       4.318002      -0.200000                    
      -5.122557      -0.774820     -10.041916      -0.200000                    
      -3.677672      -0.422071      -9.022713      -0.006000                    
      -3.210713      -1.358409      -8.717467       0.103000                    
      -2.964288       0.170064      -9.595806       0.103000                    
      -4.108366       0.360890      -7.781020      -0.006000                    
      -4.575338       1.297224      -8.086266       0.103000                    
      -4.821755      -0.231250      -7.207933       0.103000                    
      -2.663487       0.713633      -6.761824      -0.200000                    
      -3.018427      12.988538      -0.142032      -0.200000                    
      -1.389987      12.472893      -0.719323      -0.006000                    
      -1.502622      11.734092      -1.512681       0.103000                    
      -0.849246      13.338194      -1.102435       0.103000                    
      -0.608349      11.857314       0.442773      -0.006000                    
      -0.495721      12.596117       1.236137       0.103000                    
      -1.149097      10.992014       0.825891       0.103000                    
       1.020085      11.341671      -0.134512      -0.200000                    
      -9.125682       3.095857       1.060590      -0.200000                    
      -9.372169       1.711308       2.188922      -0.006000                    
     -10.345345       1.257938       2.000998       0.103000                    
      -8.589077       0.969825       2.031111       0.103000                    
      -9.314530       2.213651       3.632763      -0.006000                    
      -8.341355       2.667029       3.820699       0.103000                    
     -10.097618       2.955148       3.790575       0.103000                    
      -9.561019       0.829109       4.761108      -0.200000                    
       7.392423      -9.056266       0.226894      -0.200000                    
       6.263667      -8.681057       1.581880      -0.006000                    
       5.242923      -8.915838       1.280373       0.103000                    
       6.531475      -9.277495       2.453921       0.103000                    
       6.362558      -7.194948       1.931251      -0.006000                    
       7.383302      -6.960166       2.232758       0.103000                    
       6.094749      -6.598510       1.059209       0.103000                    
       5.233793      -6.819738       3.286243      -0.200000                    
      -4.326255      -6.713312       7.291295      -0.200000                    
      -3.417296      -5.169531       7.087599      -0.006000                    
      -2.346722      -5.369901       7.128048       0.103000                    
      -3.667758      -4.724475       6.124720       0.103000                    
      -3.797240      -4.202142       8.210185      -0.006000                    
      -4.867815      -4.001771       8.169737       0.103000                    
      -3.546779      -4.647197       9.173064       0.103000                    
      -2.888282      -2.658361       8.006490      -0.200000                    
      -1.086968      -9.557386       0.889433      -0.200000                    
      -2.274576     -10.569229      -0.014267      -0.006000                    
      -1.771435     -11.448509      -0.416353       0.103000                    
      -3.071918     -10.882886       0.659378       0.103000                    
      -2.869899      -9.753098      -1.163105      -0.006000                    
      -3.373039      -8.873818      -0.761019       0.103000                    
      -2.072551      -9.439436      -1.836744       0.103000                    
      -4.057507     -10.764941      -2.066806      -0.200000                    
     -10.612594      -4.394174      -2.815033      -0.200000                    
      -9.290684      -4.702252      -1.628206      -0.006000                    
      -8.500609      -5.281276      -2.106189       0.103000                    
      -8.885513      -3.752045      -1.280479       0.103000                    
      -9.846780      -5.485224      -0.437367      -0.006000                    
     -10.636853      -4.906200       0.040615       0.103000                    
     -10.251949      -6.435432      -0.785077       0.103000                    
      -8.524867      -5.793311       0.749465      -0.200000                    
       4.006978      11.372882       1.835845      -0.200000                    
       5.513073      11.210844       2.813763      -0.006000                    
       5.785244      10.158232       2.890527       0.103000                    
       6.320823      11.760983       2.331242       0.103000                    
       5.275367      11.778965       4.214156      -0.006000                    
       5.003198      12.831569       4.137397       0.103000                    
       4.467625      11.228825       4.696689       0.103000                    
       6.781462      11.616927       5.192074      -0.200000                    
       6.926613      -5.709105       7.436633      -0.200000                    
       8.028402      -5.399774       6.043344      -0.006000                    
       9.028022      -5.172780       6.413719       0.103000                    
       8.068296      -6.284450       5.407988       0.103000                    
       7.504093      -4.213343       5.232256      -0.006000                    
       6.504476      -4.440345       4.861888       0.103000                    
       7.464185      -3.328670       5.867612       0.103000                    
       8.605876      -3.904018       3.838979      -0.200000                    
       3.575305      -9.110593      -0.766226      -0.200000                    
       2.172572     -10.145746      -0.306011      -0.006000                    
       1.729649      -9.768968       0.615830       0.103000                    
       1.428428     -10.124535      -1.102091       0.103000                    
       2.648580     -11.583761      -0.091824      -0.006000                    
       3.091502     -11.960541      -1.013666       0.103000                    
       3.392723     -11.604972       0.704255       0.103000                    
       1.245846     -12.618915       0.368391      -0.200000                    
     -10.660969       2.272041      -4.536648      -0.200000                    
      -8.914955       2.174244      -4.975703      -0.006000                    
      -8.708828       2.855803      -5.800860       0.103000                    
      -8.307391       2.451806      -4.114465       0.103000                    
      -8.575005       0.744064      -5.399251      -0.006000                    
      -8.781130       0.062497      -4.574089       0.103000                    
      -9.182562       0.466499      -6.260495       0.103000                    
      -6.828992       0.646267      -5.838307      -0.200000                    
      -0.700120       3.218765       7.755165      -0.200000                    