%nprocshared=4                                                                       
%mem=8GB                                                                             
#P pop=chelpg cam-b3lyp/gen scf=qc int=ultrafine charge td(nstates=10)               
                                                                                     
pNA CAM-B3LYP def2-TZVPD Single point - solvent def2-SV(P)                           
                                                                                     
0 1                                                                                  
 C       1.389235       0.000000      -0.000000                                 
 C       0.000000       0.000000      -0.000000                                 
 C      -0.711164       1.193419       0.000000                                 
 C      -0.034074       2.386367       0.000141                                 
 C       1.370482       2.412065       0.000933                                 
 C       2.067428       1.192342       0.000144                                 
 H       1.924301      -0.937208       0.000967                                 
 H      -1.790186       1.173300       0.000962                                 
 H      -0.583208       3.318526      -0.000772                                 
 H       3.149318       1.197759      -0.000767                                 
 N      -0.711160      -1.251627       0.001756                                 
 O      -1.932441      -1.229701       0.002542                                 
 O      -0.067142      -2.289538       0.002483                                 
 N       2.040236       3.590780      -0.024683                                 
 H       1.546357       4.451509       0.132529                                 
 H       3.032458       3.607145       0.132525                                 
Cl      -3.154488       6.660118      -1.788917                                 
 C      -3.168846       5.132740      -0.830892                                 
 H      -2.177568       4.680174      -0.853294                                 
 H      -3.444728       5.352937       0.200298                                 
 C      -4.185753       4.161989      -1.434093                                 
 H      -5.177029       4.614546      -1.411687                                 
 H      -3.909861       3.941789      -2.465293                                 
Cl      -4.200111       2.634606      -0.476077                                 
Cl       4.692184      -2.221231       3.059909                                 
 C       3.130575      -1.990835       3.931231                                 
 H       3.148397      -2.553753       4.864351                                 
 H       2.987870      -0.932244       4.147897                                 
 C       1.979772      -2.491340       3.056278                                 
 H       1.961950      -1.928422       2.123157                                 
 H       2.122477      -3.549936       2.839603                                 
Cl       0.418162      -2.260944       3.927599                                 
Cl      -2.903010      -1.182786      -3.921433                                 
 C      -4.555241      -1.597241      -3.330491                                 
 H      -5.153687      -0.689229      -3.257550                                 
 H      -5.027781      -2.289093      -4.027639                                 
 C      -4.454187      -2.252834      -1.951969                                 
 H      -3.855733      -3.160837      -2.024916                                 
 H      -3.981649      -1.560978      -1.254834                                 
Cl      -6.106419      -2.667281      -1.361031                                 
Cl       6.006063       6.122242       4.557664                                 
 C       4.662543       6.677469       3.491128                                 
 H       3.902886       7.176077       4.093003                                 
 H       5.052036       7.373172       2.747995                                 
 C       4.041415       5.471570       2.783730                                 
 H       4.801072       4.972962       2.181854                                 
 H       3.651921       4.775867       3.526864                                 
Cl       2.697894       6.026797       1.717194                                 
Cl       1.591719       2.822439       4.411145                                 
 C      -0.119110       3.193775       3.979847                                 
 H      -0.640260       3.576929       4.857085                                 
 H      -0.140176       3.942896       3.188436                                 
 C      -0.810505       1.918891       3.493025                                 
 H      -0.289357       1.535746       2.615782                                 
 H      -0.789442       1.169774       4.284423                                 
Cl      -2.521325       2.290224       3.061718                                 
                                                                                
      -1.056198       2.500540      -3.467051      -0.200000                    
       0.212973       1.529573      -4.302094      -0.006000                    
      -0.259209       0.741094      -4.887973       0.103000                    
       0.790368       2.176812      -4.962151       0.103000                    
       1.143104       0.903398      -3.261355      -0.006000                    
       1.615286       1.691873      -2.675485       0.103000                    
       0.565709       0.256159      -2.601298       0.103000                    
       2.412275      -0.067574      -4.096407      -0.200000                    
       3.868612      -5.477787      -1.015126      -0.200000                    
       2.460381      -4.542614      -1.642199      -0.006000                    
       2.093101      -3.873183      -0.864444       0.103000                    
       2.768910      -3.958240      -2.508952       0.103000                    
       1.346975      -5.509365      -2.049739      -0.006000                    
       1.714256      -6.178792      -2.827484       0.103000                    
       1.038447      -6.093735      -1.182976       0.103000                    
      -0.061255      -4.574187      -2.676803      -0.200000                    
       4.796383      -1.069099      -0.870078      -0.200000                    
       5.984127      -2.336083      -0.385330      -0.006000                    
       5.976105      -2.446142       0.698982       0.103000                    
       5.713524      -3.284597      -0.849037       0.103000                    
       7.384140      -1.925297      -0.845312      -0.006000                    
       7.392162      -1.815238      -1.929625       0.103000                    
       7.654744      -0.976787      -0.381591       0.103000                    
       8.571885      -3.192277      -0.360555      -0.200000                    
       0.898343       6.813354      -1.567710      -0.200000                    
       1.005860       5.854787      -3.091028      -0.006000                    
       0.994097       4.791256      -2.852937       0.103000                    
       0.156804       6.093383      -3.731439       0.103000                    
       2.306149       6.199336      -3.819633      -0.006000                    
       2.317912       7.262861      -4.057733       0.103000                    
       3.155205       5.960740      -3.179222       0.103000                    
       2.413666       5.240769      -5.342951      -0.200000                    
       7.908262       1.900015      -4.121090      -0.200000                    
       6.608171       2.815851      -3.271392      -0.006000                    
       6.794922       2.800583      -2.197694       0.103000                    
       6.599702       3.847039      -3.624294       0.103000                    
       5.253714       2.166801      -3.562132      -0.006000                    
       5.066963       2.182069      -4.635830       0.103000                    
       5.262183       1.135613      -3.209230       0.103000                    
       3.953622       3.082650      -2.712430      -0.200000                    
      -4.389717      -2.124006       1.985065      -0.200000                    
      -3.272178      -1.742983       3.347745      -0.006000                    
      -2.723300      -2.641368       3.629881       0.103000                    
      -2.569366      -0.970319       3.036380       0.103000                    
      -4.081093      -1.242858       4.546029      -0.006000                    
      -4.629971      -0.344474       4.263894       0.103000                    
      -4.783905      -2.015522       4.857394       0.103000                    
      -2.963556      -0.861827       5.908704      -0.200000                    
       4.366833       1.816124       2.896608      -0.200000                    
       5.059327       1.514855       4.533864      -0.006000                    
       4.273342       1.605900       5.283446       0.103000                    
       5.482282       0.511005       4.570653       0.103000                    
       6.157291       2.541039       4.819864      -0.006000                    
       6.943276       2.449993       4.070282       0.103000                    
       5.734325       3.544887       4.783077       0.103000                    
       6.849775       2.239768       6.457121      -0.200000                    
      -1.607873       6.458364       1.763993      -0.200000                    
      -1.608603       8.197723       2.238942      -0.006000                    
      -2.216319       8.329967       3.134018       0.103000                    
      -0.587280       8.519570       2.442102       0.103000                    
      -2.190146       9.037116       1.099813      -0.006000                    
      -1.582432       8.904881       0.204732       0.103000                    
      -3.211470       8.715273       0.896639       0.103000                    
      -2.190876      10.776470       1.574754      -0.200000                    
       1.954558       9.251824       2.869997      -0.200000                    
       1.970261       9.898418       1.186947      -0.006000                    
       1.069229       9.576088       0.665220       0.103000                    
       2.003546      10.987449       1.216156       0.103000                    
       3.202295       9.370719       0.449419      -0.006000                    
       4.103325       9.693058       0.971141       0.103000                    
       3.169010       8.281688       0.420211       0.103000                    
       3.217998      10.017312      -1.233631      -0.200000                    
       8.952942       5.487911      -3.232960      -0.200000                    
       8.195065       6.246978      -1.783720      -0.006000                    
       8.656140       5.846987      -0.880777       0.103000                    
       8.342404       7.326318      -1.819653       0.103000                    
       6.696916       5.937528      -1.770687      -0.006000                    
       6.235849       6.337530      -2.673636       0.103000                    
       6.549576       4.858202      -1.734750       0.103000                    
       5.939038       6.696609      -0.321442      -0.200000                    
      -7.490874      -0.339264       4.273066      -0.200000                    
      -7.562593       1.341389       3.624098      -0.006000                    
      -8.467680       1.463081       3.029159       0.103000                    
      -7.573446       2.050518       4.451705       0.103000                    
      -6.337101       1.601747       2.746189      -0.006000                    
      -5.432014       1.480055       3.341128       0.103000                    
      -6.326236       0.892611       1.918586       0.103000                    
      -6.408811       3.282402       2.097221      -0.200000                    
      -7.155944      -5.115819       4.138716      -0.200000                    
      -5.693266      -5.330155       3.106480      -0.006000                    
      -4.952472      -4.573263       3.363951       0.103000                    
      -5.272839      -6.321837       3.273093       0.103000                    
      -6.082000      -5.182427       1.634270      -0.006000                    
      -6.822794      -5.939319       1.376798       0.103000                    
      -6.502416      -4.190752       1.467660       0.103000                    
      -4.619310      -5.396770       0.602037      -0.200000                    
       0.922138      -7.549177       4.582479      -0.200000                    
      -0.449275      -6.428610       4.244056      -0.006000                    
      -0.058796      -5.458626       3.936457       0.103000                    
      -1.067564      -6.841043       3.446861       0.103000                    
      -1.293946      -6.260040       5.508372      -0.006000                    
      -1.684427      -7.230011       5.815974       0.103000                    
      -0.675657      -5.847602       6.305575       0.103000                    
      -2.665361      -5.139460       5.169953      -0.200000                    
      11.730350       1.339372      -0.614519      -0.200000                    
      10.580070       2.303260       0.384902      -0.006000                    
      10.289424       1.726312       1.262760       0.103000                    
      11.060630       3.229039       0.701064       0.103000                    
       9.336513       2.631906      -0.443319      -0.006000                    
       9.627158       3.208854      -1.321178       0.103000                    
       8.855952       1.706127      -0.759482       0.103000                    
       8.186234       3.595786       0.556106      -0.200000                    
      -3.645718       2.740624       6.286420      -0.200000                    
      -4.733187       3.872360       5.399044      -0.006000                    
      -5.154400       3.365967       4.530654       0.103000                    
      -5.539042       4.194327       6.058470       0.103000                    
      -3.933285       5.092523       4.938853      -0.006000                    
      -3.512072       5.598916       5.807243       0.103000                    
      -3.127430       4.770556       4.279427       0.103000                    
      -5.020755       6.224254       4.051469      -0.200000                    
      -2.977798      -5.359545      -4.148501      -0.200000                    
      -4.118812      -6.081849      -2.953832      -0.006000                    
      -3.828522      -5.782458      -1.946841       0.103000                    
      -5.130339      -5.732065      -3.159740       0.103000                    
      -4.074839      -7.607057      -3.064391      -0.006000                    
      -4.365128      -7.906448      -4.071382       0.103000                    
      -3.063311      -7.956841      -2.858483       0.103000                    
      -5.215854      -8.329352      -1.869727      -0.200000                    
      10.197056      -2.242771       5.295795      -0.200000                    
       9.244598      -0.961951       4.457167      -0.006000                    
       8.430422      -0.632881       5.102743       0.103000                    
       9.893449      -0.116049       4.230470       0.103000                    
       8.667945      -1.524502       3.156619      -0.006000                    
       9.482121      -1.853572       2.511043       0.103000                    
       8.019103      -2.370402       3.383316       0.103000                    
       7.715489      -0.243691       2.317996      -0.200000                    
      -7.025046       1.403841      -2.424320      -0.200000                    
      -8.069605       2.260099      -1.229923      -0.006000                    
      -7.893369       1.852333      -0.234642       0.103000                    
      -7.830848       3.323545      -1.234650       0.103000                    
      -9.539577       2.066371      -1.606841      -0.006000                    
      -9.715810       2.474138      -2.602122       0.103000                    
      -9.778332       1.002921      -1.602123       0.103000                    
     -10.584134       2.922625      -0.412453      -0.200000                    
      -4.150260       0.044000      -7.842347      -0.200000                    
      -3.969911       1.729859      -7.228868      -0.006000                    
      -2.915697       1.940751      -7.049765       0.103000                    
      -4.360168       2.429395      -7.967947       0.103000                    
      -4.749310       1.882806      -5.921369      -0.006000                    
      -5.803525       1.671908      -6.100482       0.103000                    
      -4.359051       1.183260      -5.182286       0.103000                    
      -4.568961       3.568664      -5.307890      -0.200000                    
       2.884529      -4.006548      -5.036130      -0.200000                    
       4.443817      -4.688828      -5.631135      -0.006000                    
       4.541547      -4.494794      -6.699206       0.103000                    
       5.272027      -4.220681      -5.099297       0.103000                    
       4.467536      -6.198255      -5.383355      -0.006000                    
       4.369805      -6.392289      -4.315284       0.103000                    
       3.639334      -6.666401      -5.915195       0.103000                    
       6.026822      -6.880532      -5.978374      -0.200000                    
      -4.050328       7.643893      -5.136432      -0.200000                    
      -2.542332       6.736262      -5.527627      -0.006000                    
      -1.711234       7.148149      -4.955292       0.103000                    
      -2.674083       5.684958      -5.272058       0.103000                    
      -2.243881       6.863532      -7.022659      -0.006000                    
      -3.074970       6.451647      -7.594995       0.103000                    
      -2.112130       7.914835      -7.278227       0.103000                    
      -0.735886       5.955901      -7.413854      -0.200000                    
       3.118338       7.877501       7.170915      -0.200000                    
       2.508484       6.237767       7.607052      -0.006000                    
       2.385365       6.171266       8.687974       0.103000                    
       1.548507       6.065602       7.120530       0.103000                    
       3.511803       5.180371       7.142653      -0.006000                    
       3.634922       5.246867       6.061723       0.103000                    
       4.471779       5.352536       7.629176       0.103000                    
       2.901948       3.540637       7.578789      -0.200000                    
       1.091668      -6.214459      -7.358530      -0.200000                    
       0.017018      -6.565337      -5.953928      -0.006000                    
      -0.047586      -5.683673      -5.316391       0.103000                    
      -0.977815      -6.827403      -6.313842       0.103000                    
       0.592340      -7.733514      -5.150994      -0.006000                    
       0.656944      -8.615177      -5.788528       0.103000                    
       1.587173      -7.471447      -4.791078       0.103000                    
      -0.482319      -8.084393      -3.746389      -0.200000                    
      -7.197124       6.360466      -2.963165      -0.200000                    
      -6.541279       7.978128      -2.511579      -0.006000                    
      -5.627826       8.170129      -3.074333       0.103000                    
      -7.278754       8.746756      -2.742291       0.103000                    
      -6.231423       8.002708      -1.013670      -0.006000                    
      -7.144877       7.810712      -0.450907       0.103000                    
      -5.493949       7.234086      -0.782950       0.103000                    
      -5.575579       9.620371      -0.562084      -0.200000                    
       2.404827       0.603454      -8.877055      -0.200000                    
       3.403682      -0.404870      -7.765138      -0.006000                    
       2.750398      -0.959574      -7.091753       0.103000                    
       4.003034      -1.104086      -8.348077       0.103000                    
       4.327741       0.499893      -6.947889      -0.006000                    
       4.981026       1.054592      -7.621283       0.103000                    
       3.728379       1.199108      -6.364949       0.103000                    
       5.326596      -0.508432      -5.835972      -0.200000                    
       1.227378     -12.646637       2.489598      -0.200000                    
       1.335900     -10.955046       1.875177      -0.006000                    
       2.016632     -10.382442       2.504995       0.103000                    
       1.708494     -10.963446       0.850948       0.103000                    
      -0.051284     -10.310855       1.907337      -0.006000                    
      -0.732027     -10.883458       1.277519       0.103000                    
      -0.423888     -10.302457       2.931566       0.103000                    
       0.057237      -8.619253       1.292910      -0.200000                    
       3.970033      -9.309047       4.156847      -0.200000                    
       5.318658      -8.234511       3.630030      -0.006000                    
       6.229474      -8.506039       4.163516       0.103000                    
       5.477369      -8.349306       2.557831       0.103000                    
       4.961804      -6.779377       3.939241      -0.006000                    
       4.050988      -6.507849       3.405755       0.103000                    
       4.803082      -6.664576       5.011436       0.103000                    
       6.310428      -5.704834       3.412420      -0.200000                    
       2.132813      -0.355416       6.860674      -0.200000                    
       2.947254      -1.214174       8.220887      -0.006000                    
       2.211683      -1.464372       8.985289       0.103000                    
       3.410066      -2.128099       7.848727       0.103000                    
       4.021960      -0.308506       8.825137      -0.006000                    
       4.757531      -0.058304       8.060744       0.103000                    
       3.559148       0.605423       9.197306       0.103000                    
       4.836391      -1.167262      10.185359      -0.200000                    
       5.562900       7.213129      -9.347289      -0.200000                    
       5.166034       6.158215      -7.939957      -0.006000                    
       4.792708       6.771370      -7.119817       0.103000                    
       4.403073       5.436129      -8.230558       0.103000                    
       6.424895       5.415339      -7.488503      -0.006000                    
       6.798222       4.802184      -8.308643       0.103000                    
       7.187856       6.137426      -7.197902       0.103000                    
       6.028029       4.360430      -6.081161      -0.200000                    
     -10.516914      -1.651503      -2.747819      -0.200000                    
      -9.857845      -1.464323      -4.415597      -0.006000                    
     -10.380977      -2.140849      -5.091325       0.103000                    
      -9.999068      -0.436309      -4.749084       0.103000                    
      -8.365098      -1.799005      -4.414529      -0.006000                    
      -7.841959      -1.122470      -3.738806       0.103000                    
      -8.223875      -2.827014      -4.081033       0.103000                    
      -7.706028      -1.611821      -6.082298      -0.200000                    
      11.053341      -4.700239      -4.517663      -0.200000                    
       9.294978      -4.510593      -4.166740      -0.006000                    
       9.064342      -3.454839      -4.024868       0.103000                    
       8.713406      -4.900737      -5.001896       0.103000                    
       8.942439      -5.284379      -2.894984      -0.006000                    
       9.173076      -6.340132      -3.036856       0.103000                    
       9.524014      -4.894235      -2.059827       0.103000                    
       7.184079      -5.094733      -2.544061      -0.200000                    
      -1.453168       7.918852       5.750377      -0.200000                    
      -0.642135       9.513721       5.972936      -0.006000                    
       0.148117       9.626418       5.230821       0.103000                    
      -1.372623      10.313305       5.850472       0.103000                    
      -0.037308       9.586801       7.376215      -0.006000                    
      -0.827570       9.474101       8.118332       0.103000                    
       0.693182       8.787208       7.498683       0.103000                    
       0.773724      11.181669       7.598774      -0.200000                    
      -9.945046      -0.381056       1.472202      -0.200000                    
      -9.781518      -2.065169       0.849326      -0.006000                    
      -9.197159      -2.057423      -0.070679       0.103000                    
      -9.278258      -2.681150       1.594503       0.103000                    
     -11.170163      -2.641150       0.565949      -0.006000                    
     -11.754522      -2.648896       1.485954       0.103000                    
     -11.673424      -2.025169      -0.179227       0.103000                    
     -11.006635      -4.325258      -0.056918      -0.200000                    
      12.371704       6.085967       0.943871      -0.200000                    
      11.040594       7.301725       0.912991      -0.006000                    
      11.464582       8.305629       0.932748       0.103000                    
      10.452046       7.173469       0.004633       0.103000                    
      10.141334       7.104421       2.134753      -0.006000                    
       9.717356       6.100523       2.115003       0.103000                    
      10.729893       7.232683       3.043119       0.103000                    
       8.810234       8.320181       2.103871      -0.200000                    
      -1.001063      -3.557298      -7.258783      -0.200000                    
      -0.688856      -2.039348      -8.180369      -0.006000                    
      -1.346980      -1.250753      -7.815760       0.103000                    
       0.349715      -1.738223      -8.043854       0.103000                    
      -0.958067      -2.280801      -9.666845      -0.006000                    
      -0.299933      -3.069398     -10.031463       0.103000                    
      -1.996628      -2.581924      -9.803363       0.103000                    
      -0.645859      -0.762851     -10.588432      -0.200000                    
       0.757329      11.883174      -9.103123      -0.200000                    
       1.314655      10.801638      -7.772528      -0.006000                    
       2.054578      10.101023      -8.159252       0.103000                    
       1.761364      11.401303      -6.979555       0.103000                    
       0.121281      10.024950      -7.213042      -0.006000                    
      -0.618652      10.725564      -6.826316       0.103000                    
      -0.325427       9.425284      -8.006014       0.103000                    
       0.678606       8.943414      -5.882447      -0.200000                    
      -4.101946      -2.538666       8.673890      -0.200000                    
      -2.539133      -3.167063       9.317030      -0.006000                    
      -2.354465      -2.741543      10.303311       0.103000                    
      -2.587696      -4.253269       9.392983       0.103000                    
      -1.403127      -2.772824       8.371293      -0.006000                    
      -1.587805      -3.198341       7.385022       0.103000                    
      -1.354576      -1.686611       8.295336       0.103000                    
       0.159687      -3.401221       9.014433      -0.200000                    
       9.756244       3.442591       3.743618      -0.200000                    
      10.898932       3.758330       5.102080      -0.006000                    
      10.421386       4.408148       5.835295       0.103000                    
      11.171031       2.814811       5.575053       0.103000                    
      12.157934       4.438943       4.561663      -0.006000                    
      12.635479       3.789125       3.828448       0.103000                    
      11.885836       5.382462       4.088690       0.103000                    
      13.300633       4.754675       5.920129      -0.200000                    
       2.757486      -8.981023      -2.904552      -0.200000                    