%nprocshared=4                                                                       
%mem=8GB                                                                             
#P pop=chelpg cam-b3lyp/gen scf=qc int=ultrafine charge td(nstates=10)               
                                                                                     
pNA CAM-B3LYP def2-TZVPD Single point - solvent def2-SV(P)                           
                                                                                     
0 1                                                                                  
 C       1.389235       0.000000      -0.000000                                 
 C       0.000000       0.000000      -0.000000                                 
 C      -0.711164       1.193419       0.000000                                 
 C      -0.034074       2.386367       0.000141                                 
 C       1.370482       2.412065       0.000933                                 
 C       2.067428       1.192342       0.000144                                 
 H       1.924301      -0.937208       0.000967                                 
 H      -1.790186       1.173300       0.000962                                 
 H      -0.583208       3.318526      -0.000772                                 
 H       3.149318       1.197759      -0.000767                                 
 N      -0.711160      -1.251627       0.001756                                 
 O      -1.932441      -1.229701       0.002542                                 
 O      -0.067142      -2.289538       0.002483                                 
 N       2.040236       3.590780      -0.024683                                 
 H       1.546357       4.451509       0.132529                                 
 H       3.032458       3.607145       0.132525                                 
Cl       6.594528       0.559634       0.881278                                 
 C       5.454372      -0.836687       0.845462                                 
 H       4.480768      -0.502001       0.487636                                 
 H       5.842347      -1.605835       0.177790                                 
 C       5.308607      -1.412284       2.255360                                 
 H       6.282209      -1.746969       2.613176                                 
 H       4.920637      -0.643142       2.923020                                 
Cl       4.168463      -2.808604       2.219532                                 
Cl       1.408770      -5.093164      -4.412386                                 
 C       2.775325      -4.552626      -3.367768                                 
 H       3.611990      -5.242394      -3.477815                                 
 H       3.087450      -3.551928      -3.666358                                 
 C       2.322389      -4.530197      -1.906700                                 
 H       1.485720      -3.840423      -1.796641                                 
 H       2.010272      -5.530889      -1.608110                                 
Cl       3.688951      -3.989652      -0.862083                                 
Cl      -3.503138       1.791615      -3.686761                                 
 C      -2.802788       0.138534      -3.520221                                 
 H      -2.823908      -0.161406      -2.472593                                 
 H      -3.387853      -0.565501      -4.111819                                 
 C      -1.356659       0.144750      -4.019261                                 
 H      -1.335539       0.444691      -5.066888                                 
 H      -0.771601       0.848778      -3.427663                                 
Cl      -0.656309      -1.508330      -3.852720                                 
Cl      -3.974888      -3.066586      -2.876126                                 
 C      -3.159046      -4.318583      -1.867268                                 
 H      -3.120059      -3.982031      -0.831335                                 
 H      -3.717459      -5.252772      -1.925266                                 
 C      -1.736630      -4.542428      -2.384017                                 
 H      -1.775616      -4.878965      -3.419948                                 
 H      -1.178219      -3.608222      -2.326027                                 
Cl      -0.920781      -5.794417      -1.375159                                 
Cl      -2.751061       5.224032      -0.418922                                 
 C      -4.025312       4.050092      -0.917844                                 
 H      -3.571601       3.244447      -1.494935                                 
 H      -4.505704       3.636346      -0.031291                                 
 C      -5.070040       4.765741      -1.776209                                 
 H      -5.523759       5.571380      -1.199117                                 
 H      -4.589656       5.179481      -2.662761                                 
Cl      -6.344299       3.591795      -2.275129                                 
                                                                                
      -0.662759       4.795837      -3.028343      -0.200000                    
       1.096477       4.971948      -3.382045      -0.006000                    
       1.442629       5.943598      -3.029887       0.103000                    
       1.650283       4.182640      -2.873880       0.103000                    
       1.326442       4.865410      -4.890729      -0.006000                    
       0.980297       3.893766      -5.242888       0.103000                    
       0.772636       5.654717      -5.398895       0.103000                    
       3.085684       5.041529      -5.244442      -0.200000                    
       4.195432       6.028691       1.512327      -0.200000                    
       5.737770       5.493576       2.277611      -0.006000                    
       6.370955       6.360815       2.464518       0.103000                    
       5.520858       4.991834       3.220529       0.103000                    
       6.463007       4.525819       1.340675      -0.006000                    
       5.829819       3.658582       1.153759       0.103000                    
       6.679923       5.027556       0.397745       0.103000                    
       8.005351       3.990697       2.105956      -0.200000                    
       2.326726       9.714856       3.062803      -0.200000                    
       1.324297       8.587232       2.075653      -0.006000                    
       1.417572       7.576135       2.471847       0.103000                    
       0.280566       8.898585       2.115800       0.103000                    
       1.807930       8.612330       0.624497      -0.006000                    
       1.714655       9.623428       0.228303       0.103000                    
       2.851654       8.300971       0.584350       0.103000                    
       0.805499       7.484708      -0.362663      -0.200000                    
      -5.049714       0.570680      -0.949289      -0.200000                    
      -6.205500      -0.807537      -1.074112      -0.006000                    
      -7.226297      -0.425816      -1.088809       0.103000                    
      -6.011651      -1.362610      -1.991873       0.103000                    
      -6.025592      -1.734542       0.129512      -0.006000                    
      -5.004795      -2.116263       0.144209       0.103000                    
      -6.219441      -1.179469       1.047274       0.103000                    
      -7.181378      -3.112760       0.004689      -0.200000                    
      -2.031198       0.164069       3.807663      -0.200000                    
      -3.713420      -0.239969       4.315320      -0.006000                    
      -3.722269      -0.493849       5.375239       0.103000                    
      -4.361741       0.618827       4.141757       0.103000                    
      -4.219059      -1.432662       3.501601      -0.006000                    
      -4.210216      -1.178774       2.441684       0.103000                    
      -3.570742      -2.291452       3.675176       0.103000                    
      -5.901287      -1.836692       4.009260      -0.200000                    
       1.474776       2.297632       6.094050      -0.200000                    
       0.753504       2.847883       4.535876      -0.006000                    
       1.335840       3.679457       4.139260       0.103000                    
       0.761143       2.025111       3.821075       0.103000                    
      -0.687641       3.302810       4.773558      -0.006000                    
      -1.269969       2.471243       5.170174       0.103000                    
      -0.695273       4.125589       5.488358       0.103000                    
      -1.408907       3.853055       3.215381      -0.200000                    
      -1.786267      -4.092623       2.368649      -0.200000                    
      -0.814367      -5.519815       2.887721      -0.006000                    
       0.208529      -5.413880       2.526604       0.103000                    
      -0.811234      -5.581229       3.975918       0.103000                    
      -1.430050      -6.794384       2.307368      -0.006000                    
      -2.452946      -6.900320       2.668485       0.103000                    
      -1.433176      -6.732977       1.219169       0.103000                    
      -0.458136      -8.221577       2.826438      -0.200000                    
      10.199566       2.697629      -2.709336      -0.200000                    
       8.581470       2.234852      -2.062422      -0.006000                    
       8.266390       1.292820      -2.511063       0.103000                    
       8.641856       2.119910      -0.980280       0.103000                    
       7.565001       3.326305      -2.402830      -0.006000                    
       7.880074       4.268330      -1.954189       0.103000                    
       7.504615       3.441248      -3.484972       0.103000                    
       5.946912       2.863522      -1.755918      -0.200000                    
       0.913087      -4.205859       6.114422      -0.200000                    
       1.675784      -2.718465       5.438561      -0.006000                    
       1.698318      -1.941918       6.203031       0.103000                    
       2.693262      -2.944351       5.119720       0.103000                    
       0.862874      -2.228675       4.238727      -0.006000                    
       0.840338      -3.005220       3.474248       0.103000                    
      -0.154604      -2.002789       4.557569       0.103000                    
       1.625570      -0.741281       3.562866      -0.200000                    
       4.230154       2.228627       3.443357      -0.200000                    
       5.127141       2.660345       4.946650      -0.006000                    
       5.867114       3.428030       4.720727       0.103000                    
       4.427214       3.038155       5.691828       0.103000                    
       5.832672       1.418177       5.494009      -0.006000                    
       5.092707       0.650500       5.719931       0.103000                    
       6.532605       1.040376       4.748820       0.103000                    
       6.729668       1.849902       6.997300      -0.200000                    
       1.388029       1.564228      -6.699188      -0.200000                    
       2.820468       0.469427      -6.721453      -0.006000                    
       2.832963      -0.094018      -7.654348       0.103000                    
       3.731996       1.061688      -6.642187       0.103000                    
       2.739156      -0.500787      -5.541423      -0.006000                    
       2.726647       0.062658      -4.608526       0.103000                    
       1.827622      -1.093041      -5.620686       0.103000                    
       4.171587      -1.595580      -5.563695      -0.200000                    
       5.676626       7.464572      -1.279330      -0.200000                    
       5.872381       7.641971      -3.062896      -0.006000                    
       6.762887       8.234005      -3.273808       0.103000                    
       5.974940       6.656546      -3.517200       0.103000                    
       4.643941       8.345144      -3.643281      -0.006000                    
       3.753429       7.753118      -3.432365       0.103000                    
       4.541380       9.330571      -3.188986       0.103000                    
       4.839704       8.522550      -5.426847      -0.200000                    
      -5.127421      -5.630588       2.908802      -0.200000                    
      -5.196308      -5.743792       1.110628      -0.006000                    
      -5.283579      -4.743589       0.686432       0.103000                    
      -4.286878      -6.217383       0.741042       0.103000                    
      -6.409573      -6.579558       0.698453      -0.006000                    
      -6.322296      -7.579768       1.122647       0.103000                    
      -7.318998      -6.105973       1.068026       0.103000                    
      -6.478453      -6.692770      -1.099723      -0.200000                    
       3.380781      -6.989834       3.444585      -0.200000                    
       3.657977      -6.691801       1.688087      -0.006000                    
       2.907231      -5.995510       1.314535       0.103000                    
       4.651376      -6.267255       1.543694       0.103000                    
       3.552571      -8.012856       0.923854      -0.006000                    
       4.303322      -8.709138       1.297395       0.103000                    
       2.559172      -8.437402       1.068247       0.103000                    
       3.829774      -7.714815      -0.832645      -0.200000                    
      -3.394321       7.333337       2.967867      -0.200000                    
      -4.778563       6.178112       2.983328      -0.006000                    
      -5.704861       6.717978       2.787177       0.103000                    
      -4.628998       5.421115       2.213597       0.103000                    
      -4.863279       5.502064       4.353035      -0.006000                    
      -3.936984       4.962200       4.549176       0.103000                    
      -5.012844       6.259061       5.122766       0.103000                    
      -6.247524       4.346840       4.368486      -0.200000                    
       6.524775      -4.091274      -4.096469      -0.200000                    
       7.890180      -3.395472      -3.146463      -0.006000                    
       8.190922      -4.100932      -2.371984       0.103000                    
       8.733299      -3.202368      -3.809621       0.103000                    
       7.443149      -2.084936      -2.496011      -0.006000                    
       7.142408      -1.379477      -3.270490       0.103000                    
       6.600029      -2.278039      -1.832863       0.103000                    
       8.808559      -1.389125      -1.546015      -0.200000                    
     -10.707942       2.190704      -0.684289      -0.200000                    
      -9.118968       2.707809      -0.007040      -0.006000                    
      -8.384605       2.770512      -0.809976       0.103000                    
      -9.225501       3.684269       0.465276       0.103000                    
      -8.651329       1.687442       1.032435      -0.006000                    
      -9.385692       1.624740       1.835371       0.103000                    
      -8.544803       0.710976       0.560120       0.103000                    
      -7.062364       2.204543       1.709675      -0.200000                    
       6.023952       1.532070      -4.954799      -0.200000                    
       6.224288       2.356602      -6.545696      -0.006000                    
       5.841439       1.714427      -7.338777       0.103000                    
       5.672030       3.296246      -6.540300       0.103000                    
       7.707761       2.639038      -6.790445      -0.006000                    
       8.090604       3.281220      -5.997362       0.103000                    
       8.260010       1.699402      -6.795848       0.103000                    
       7.908091       3.463577      -8.381340      -0.200000                    
       7.600484      -3.646384       0.950449      -0.200000                    
       7.356306      -5.374029       1.404914      -0.006000                    
       8.238518      -5.740028       1.929929       0.103000                    
       6.485189      -5.459508       2.054341       0.103000                    
       7.133367      -6.207084       0.141334      -0.006000                    
       6.251153      -5.841082      -0.383690       0.103000                    
       8.004482      -6.121603      -0.508103       0.103000                    
       6.889180      -7.934721       0.595793      -0.200000                    
      -6.368564      -4.068969      -7.878221      -0.200000                    
      -4.774252      -3.228902      -7.820777      -0.006000                    
      -3.982489      -3.933932      -8.073748       0.103000                    
      -4.770740      -2.406337      -8.535844       0.103000                    
      -4.537275      -2.680575      -6.412419      -0.006000                    
      -5.329037      -1.975545      -6.159448       0.103000                    
      -4.540788      -3.503124      -5.697359       0.103000                    
      -2.942956      -1.840502      -6.354975      -0.200000                    
      -2.070039      12.565811      -2.192664      -0.200000                    
      -0.273847      12.459943      -2.308730      -0.006000                    
       0.057636      12.915221      -3.241870       0.103000                    
       0.176505      12.986333      -1.467261       0.103000                    
       0.153409      10.991321      -2.278531      -0.006000                    
      -0.178082      10.536037      -1.345391       0.103000                    
      -0.296943      10.464931      -3.120001       0.103000                    
       1.949593      10.885446      -2.394598      -0.200000                    
       5.215459       7.980885       4.449779      -0.200000                    
       5.714704       9.670278       4.065620      -0.006000                    
       5.491911       9.886568       3.020874       0.103000                    
       5.169749      10.364718       4.704897       0.103000                    
       7.217039       9.825819       4.308853      -0.006000                    
       7.439839       9.609521       5.353597       0.103000                    
       7.762010       9.131375       3.669583       0.103000                    
       7.716298      11.515211       3.924691      -0.200000                    
      -6.972462      -0.384325      -4.183270      -0.200000                    
      -8.321688       0.637710      -3.561950      -0.006000                    
      -9.016438       0.017635      -2.995545       0.103000                    
      -7.919264       1.416970      -2.914823       0.103000                    
      -9.056906       1.282089      -4.738629      -0.006000                    
      -8.362148       1.902170      -5.305035       0.103000                    
      -9.459329       0.502843      -5.385754       0.103000                    
     -10.406132       2.304124      -4.117309      -0.200000                    
       0.961695       6.857233       6.708107      -0.200000                    
       2.226942       8.122975       6.489128      -0.006000                    
       2.866708       7.855879       5.648110       0.103000                    
       1.750340       9.083319       6.292723       0.103000                    
       3.072243       8.224284       7.760137      -0.006000                    
       2.432477       8.491394       8.601156       0.103000                    
       3.548838       7.263948       7.956545       0.103000                    
       4.337490       9.490026       7.541157      -0.200000                    
       8.843020       0.289714       3.489695      -0.200000                    
      10.091446      -0.322757       2.341956      -0.006000                    
      10.755019      -1.013953       2.861438       0.103000                    
       9.603364      -0.839176       1.515500       0.103000                    
      10.905132       0.853194       1.798436      -0.006000                    
      10.241560       1.544390       1.278954       0.103000                    
      11.393221       1.369619       2.624892       0.103000                    
      12.153572       0.240722       0.650694      -0.200000                    
      -2.635053       1.913183      -7.947040      -0.200000                    
      -4.288210       1.265432      -8.260635      -0.006000                    
      -4.701461       1.739137      -9.150992       0.103000                    
      -4.233324       0.187807      -8.414408       0.103000                    
      -5.188798       1.563509      -7.060453      -0.006000                    
      -4.775540       1.089812      -6.170097       0.103000                    
      -5.243685       2.641135      -6.906681       0.103000                    
      -6.841942       0.915758      -7.374053      -0.200000                    
      -6.752902      -4.995115      -3.739005      -0.200000                    
      -8.234425      -3.971598      -3.647968      -0.006000                    
      -8.939158      -4.413847      -2.943907       0.103000                    
      -7.964642      -2.970516      -3.311888       0.103000                    
      -8.881760      -3.887243      -5.031505      -0.006000                    
      -8.177026      -3.444994      -5.735565       0.103000                    
      -9.151540      -4.888325      -5.367575       0.103000                    
     -10.363282      -2.863725      -4.940467      -0.200000                    
      -5.746562      11.403316      -2.879913      -0.200000                    
      -5.238367       9.940427      -1.956520      -0.006000                    
      -5.182720       9.085984      -2.630898       0.103000                    
      -4.259942      10.114683      -1.509023       0.103000                    
      -6.259083       9.653425      -0.853777      -0.006000                    
      -6.314733      10.507870      -0.179408       0.103000                    
      -7.237510       9.479172      -1.301284       0.103000                    
      -5.750891       8.190537       0.069607      -0.200000                    
      -4.426941      -3.556503       8.099804      -0.200000                    
      -3.391555      -4.717225       7.187905      -0.006000                    
      -2.768039      -4.170259       6.480783       0.103000                    
      -2.756765      -5.263650       7.885337       0.103000                    
      -4.279489      -5.703664       6.427117      -0.006000                    
      -4.903005      -6.250629       7.134239       0.103000                    
      -4.914279      -5.157239       5.729686       0.103000                    
      -3.244096      -6.864393       5.515217      -0.200000                    
       5.422577      -4.238060       9.297921      -0.200000                    
       5.601439      -2.808033       8.214412      -0.006000                    
       4.635344      -2.317065       8.097914       0.103000                    
       6.314560      -2.108503       8.650369       0.103000                    
       6.108618      -3.265707       6.845584      -0.006000                    
       7.074713      -3.756675       6.962083       0.103000                    
       5.395496      -3.965238       6.409628       0.103000                    
       6.287470      -1.835686       5.762066      -0.200000                    
      11.166794       3.301400       5.491145      -0.200000                    
       9.405637       3.683460       5.548540      -0.006000                    
       8.901462       3.200968       4.711309       0.103000                    
       8.984817       3.318680       6.485463       0.103000                    
       9.209134       5.197868       5.457278      -0.006000                    
       9.713312       5.680359       6.294519       0.103000                    
       9.629950       5.562639       4.520366       0.103000                    
       7.447986       5.579919       5.514681      -0.200000                    
       8.594636       8.190384       0.972472      -0.200000                    
       9.555714       9.703761       1.164543      -0.006000                    
       9.781387       9.859745       2.219391       0.103000                    
      10.485687       9.617630       0.602675       0.103000                    
       8.748845      10.890859       0.635288      -0.006000                    
       8.523173      10.734874      -0.419550       0.103000                    
       7.818874      10.976989       1.197166       0.103000                    
       9.709924      12.404237       0.827360      -0.200000                    
      -1.328272       0.118631       7.300725      -0.200000                    
      -2.742033       0.349613       8.395584      -0.006000                    
      -3.655546       0.061568       7.875499       0.103000                    
      -2.618832      -0.269562       9.284033       0.103000                    
      -2.832728       1.819998       8.808023      -0.006000                    
      -1.919222       2.108036       9.328108       0.103000                    
      -2.955926       2.439171       7.919583       0.103000                    
      -4.246496       2.050973       9.902884      -0.200000                    
       1.320605       8.564307      -6.015165      -0.200000                    
       2.126962       8.400441      -7.619462      -0.006000                    
       2.764369       9.266721      -7.796180       0.103000                    
       2.733128       7.494685      -7.630892       0.103000                    
       1.065210       8.316715      -8.717660      -0.006000                    
       0.427812       7.450441      -8.540933       0.103000                    
       0.459044       9.222471      -8.706229       0.103000                    
       1.871567       8.152849     -10.321957      -0.200000                    
       0.678104      -9.806060      -2.179676      -0.200000                    
      -0.454582      -9.351325      -3.506734      -0.006000                    
      -1.384493      -8.977101      -3.078765       0.103000                    
       0.000041      -8.575789      -4.122996       0.103000                    
      -0.748976     -10.580025      -4.369267      -0.006000                    
       0.180928     -10.954256      -4.797236       0.103000                    
      -1.203599     -11.355575      -3.753007       0.103000                    
      -1.881663     -10.125303      -5.696327      -0.200000                    
      -3.823514      -7.984504      -3.234468      -0.200000                    
      -4.489865      -7.723017      -4.889326      -0.006000                    
      -4.932598      -6.728918      -4.950105       0.103000                    
      -3.687632      -7.809145      -5.622073       0.103000                    
      -5.560651      -8.776192      -5.180150      -0.006000                    
      -5.117918      -9.770291      -5.119371       0.103000                    
      -6.362884      -8.690063      -4.447402       0.103000                    
      -6.227009      -8.514710      -6.835008      -0.200000                    
       9.053197       7.617185      -9.051686      -0.200000                    
       8.149968       7.239272      -7.537659      -0.006000                    
       7.858420       8.167734      -7.046861       0.103000                    
       7.258586       6.661102      -7.780777       0.103000                    
       9.044330       6.426323      -6.599761      -0.006000                    
       9.335878       5.497860      -7.090559       0.103000                    
       9.935712       7.004492      -6.356644       0.103000                    
       8.141102       6.048409      -5.085734      -0.200000                    
      -6.591453       0.857639       6.172430      -0.200000                    
      -8.205235       1.367178       5.550346      -0.006000                    
      -8.545347       2.245697       6.098474       0.103000                    
      -8.126775       1.607957       4.490245       0.103000                    
      -9.208219       0.227916       5.741102      -0.006000                    
      -8.868107      -0.650603       5.192973       0.103000                    
      -9.286694      -0.012863       6.801205       0.103000                    
     -10.822001       0.737454       5.119018      -0.200000                    
      -3.101180       9.026506      -4.648824      -0.200000                    