%nprocshared=4                                                                       
%mem=8GB                                                                             
#P pop=chelpg cam-b3lyp/gen scf=qc int=ultrafine charge td(nstates=10)               
                                                                                     
pNA CAM-B3LYP def2-TZVPD Single point - solvent def2-SV(P)                           
                                                                                     
0 1                                                                                  
 C       1.389235       0.000000      -0.000000                                 
 C       0.000000       0.000000      -0.000000                                 
 C      -0.711164       1.193419       0.000000                                 
 C      -0.034074       2.386367       0.000141                                 
 C       1.370482       2.412065       0.000933                                 
 C       2.067428       1.192342       0.000144                                 
 H       1.924301      -0.937208       0.000967                                 
 H      -1.790186       1.173300       0.000962                                 
 H      -0.583208       3.318526      -0.000772                                 
 H       3.149318       1.197759      -0.000767                                 
 N      -0.711160      -1.251627       0.001756                                 
 O      -1.932441      -1.229701       0.002542                                 
 O      -0.067142      -2.289538       0.002483                                 
 N       2.040236       3.590780      -0.024683                                 
 H       1.546357       4.451509       0.132529                                 
 H       3.032458       3.607145       0.132525                                 
Cl      -6.031808       0.909781       1.268341                                 
 C      -4.576330       1.925202       0.949960                                 
 H      -4.231292       2.369014       1.883743                                 
 H      -3.785507       1.305019       0.528174                                 
 C      -4.935531       3.035301      -0.039489                                 
 H      -5.280569       2.591490      -0.973273                                 
 H      -5.726355       3.655483       0.382297                                 
Cl      -3.480053       4.050722      -0.357870                                 
Cl       9.160940       5.056793      -1.392786                                 
 C       7.363564       5.193753      -1.433623                                 
 H       7.048033       6.026600      -0.805342                                 
 H       7.035295       5.366709      -2.458441                                 
 C       6.741378       3.897416      -0.911351                                 
 H       7.056910       3.064568      -1.539631                                 
 H       7.069643       3.724446       0.113468                                 
Cl       4.944005       4.034369      -0.952180                                 
Cl       0.973074      -1.438304      -3.233598                                 
 C      -0.281634      -2.536902      -3.918936                                 
 H      -0.545660      -2.205601      -4.923152                                 
 H       0.109597      -3.553273      -3.962507                                 
 C      -1.525872      -2.507733      -3.029315                                 
 H      -1.261845      -2.839042      -2.025093                                 
 H      -1.917102      -1.491370      -2.985738                                 
Cl      -2.780580      -3.606331      -3.714653                                 
Cl      -0.615459       1.660249      -3.569990                                 
 C       0.566163       2.951347      -3.136592                                 
 H       0.131856       3.601748      -2.377443                                 
 H       1.476335       2.495376      -2.747188                                 
 C       0.901300       3.774703      -4.381628                                 
 H       1.335608       3.124302      -5.140777                                 
 H      -0.008877       4.230669      -4.771037                                 
Cl       2.082917       5.065795      -3.948236                                 
Cl       5.473115      -0.028641      -0.630610                                 
 C       4.562724      -0.267402      -2.168497                                 
 H       5.064881      -1.020986      -2.775033                                 
 H       3.548989      -0.598378      -1.943254                                 
 C       4.508062       1.053088      -2.939002                                 
 H       4.005910       1.806679      -2.332460                                 
 H       5.521796       1.384072      -3.164252                                 
Cl       3.597670       0.814328      -4.476889                                 
                                                                                
      -1.604317      -1.833005       3.814035      -0.200000                    
      -3.358372      -2.110383       3.502111      -0.006000                    
      -3.853555      -2.388463       4.432383       0.103000                    
      -3.806793      -1.197489       3.110341       0.103000                    
      -3.522693      -3.237531       2.480896      -0.006000                    
      -3.027514      -2.959465       1.550626       0.103000                    
      -3.074285      -4.150436       2.872673       0.103000                    
      -5.276753      -3.514923       2.168974      -0.200000                    
       3.223315       4.817283       4.784791      -0.200000                    
       1.850851       4.317208       3.727806      -0.006000                    
       2.148331       4.399364       2.682474       0.103000                    
       1.579353       3.284953       3.948488       0.103000                    
       0.648810       5.226939       3.988370      -0.006000                    
       0.351331       5.144783       5.033702       0.103000                    
       0.920293       6.259199       3.767681       0.103000                    
      -0.723661       4.726865       2.931372      -0.200000                    
      -1.035893      -5.778409       0.159126      -0.200000                    
      -0.107191      -6.107684       1.669098      -0.006000                    
      -0.777310      -6.513316       2.426935       0.103000                    
       0.683518      -6.828054       1.459817       0.103000                    
       0.512147      -4.805843       2.180941      -0.006000                    
       1.182264      -4.400204       1.423097       0.103000                    
      -0.278568      -4.085478       2.390216       0.103000                    
       1.440848      -5.135110       3.690906      -0.200000                    
       6.258797       3.689062       3.892303      -0.200000                    
       5.858508       1.936455       4.030643      -0.006000                    
       6.607471       1.440048       4.647569       0.103000                    
       4.876341       1.822946       4.489382       0.103000                    
       5.846076       1.304711       2.637394      -0.006000                    
       5.097113       1.801118       2.020467       0.103000                    
       6.828235       1.418223       2.178659       0.103000                    
       5.445787      -0.447895       2.775733      -0.200000                    
      -6.861079      -2.688008      -2.199217      -0.200000                    
      -5.546403      -1.540786      -1.744896      -0.006000                    
      -5.760512      -1.111591      -0.766192       0.103000                    
      -4.595953      -2.072988      -1.708452       0.103000                    
      -5.464100      -0.421812      -2.784864      -0.006000                    
      -5.249992      -0.851001      -3.763574       0.103000                    
      -6.414550       0.110389      -2.821308       0.103000                    
      -4.149424       0.725410      -2.330543      -0.200000                    
       5.580018       8.870357       4.521766      -0.200000                    
       5.783226       7.583801       3.275029      -0.006000                    
       6.682502       7.781474       2.691811       0.103000                    
       5.873197       6.614130       3.764529       0.103000                    
       4.566380       7.575417       2.347888      -0.006000                    
       3.667096       7.377748       2.931111       0.103000                    
       4.476401       8.545091       1.858392       0.103000                    
       4.769579       6.288864       1.101156      -0.200000                    
      -0.504366       7.361349      -0.086844      -0.200000                    
      -1.484100       7.516863      -1.592448      -0.006000                    
      -2.444474       7.020362      -1.454195       0.103000                    
      -1.648468       8.571737      -1.811934       0.103000                    
      -0.736462       6.864729      -2.756978      -0.006000                    
       0.223904       7.361227      -2.895219       0.103000                    
      -0.572103       5.809860      -2.537487       0.103000                    
      -1.716203       7.020241      -4.262571      -0.200000                    
      -2.565514       8.319002       3.646591      -0.200000                    
      -4.205271       7.710013       3.209301      -0.006000                    
      -4.893629       7.894961       4.033865       0.103000                    
      -4.559151       8.226910       2.317378       0.103000                    
      -4.134010       6.207123       2.932553      -0.006000                    
      -3.445647       6.022181       2.107994       0.103000                    
      -3.780125       5.690233       3.824480       0.103000                    
      -5.773768       5.598134       2.495261      -0.200000                    
       3.829332      -2.586155       7.324158      -0.200000                    
       3.638756      -1.649215       5.795522      -0.006000                    
       4.565162      -1.118431       5.576517       0.103000                    
       3.408449      -2.331402       4.977269       0.103000                    
       2.499236      -0.640895       5.954140      -0.006000                    
       1.572829      -1.171679       6.173144       0.103000                    
       2.729537       0.041285       6.772387       0.103000                    
       2.308652       0.296048       4.425508      -0.200000                    
       2.672624       8.364846      -2.977009      -0.200000                    
       4.299669       9.065835      -2.641932      -0.006000                    
       4.621048       9.662932      -3.495251       0.103000                    
       4.247855       9.697394      -1.755155       0.103000                    
       5.302814       7.935504      -2.404396      -0.006000                    
       4.981433       7.338415      -1.551083       0.103000                    
       5.354627       7.303953      -3.291179       0.103000                    
       6.929859       8.636493      -2.069319      -0.200000                    
       2.876923      -6.678123      -3.681425      -0.200000                    
       3.278869      -7.502671      -2.129173      -0.006000                    
       2.630736      -8.369293      -1.999372       0.103000                    
       4.319411      -7.826491      -2.148317       0.103000                    
       3.069088      -6.530946      -0.966368      -0.006000                    
       3.717220      -5.664318      -1.096176       0.103000                    
       2.028546      -6.207126      -0.947224       0.103000                    
       3.471033      -7.355488       0.585878      -0.200000                    
      -5.397332       2.114022      -7.273479      -0.200000                    
      -4.080696       3.073224      -6.500611      -0.006000                    
      -3.113905       2.711475      -6.850430       0.103000                    
      -4.193099       4.124454      -6.765599       0.103000                    
      -4.162545       2.919433      -4.980727      -0.006000                    
      -5.129331       3.281189      -4.630903       0.103000                    
      -4.050136       1.868209      -4.715733       0.103000                    
      -2.845902       3.878634      -4.207846      -0.200000                    
      -4.326264      -7.368826      -4.013900      -0.200000                    
      -2.549222      -7.672085      -3.981021      -0.006000                    
      -2.364099      -8.745815      -3.953057       0.103000                    
      -2.091328      -7.247355      -4.874252       0.103000                    
      -1.943231      -7.018115      -2.737854      -0.006000                    
      -2.128368      -5.944388      -2.765818       0.103000                    
      -2.401134      -7.442834      -1.844625       0.103000                    
      -0.166197      -7.321371      -2.704971      -0.200000                    
      -2.988080       2.662282       4.660830      -0.200000                    
      -2.591127       1.399086       5.884602      -0.006000                    
      -3.137055       1.601245       6.806029       0.103000                    
      -2.875399       0.419272       5.501106       0.103000                    
      -1.087972       1.418534       6.168388      -0.006000                    
      -0.542045       1.216383       5.246954       0.103000                    
      -0.803701       2.398348       6.551884       0.103000                    
      -0.691019       0.155339       7.392159      -0.200000                    
       7.673406      -2.553160      -0.098719      -0.200000                    
       7.742754      -4.217935       0.590204      -0.006000                    
       7.902889      -4.937303      -0.212780       0.103000                    
       8.563410      -4.281878       1.304619       0.103000                    
       6.424155      -4.531561       1.299646      -0.006000                    
       6.264030      -3.812197       2.102625       0.103000                    
       5.603507      -4.467614       0.585220       0.103000                    
       6.493505      -6.196339       1.988552      -0.200000                    
      -1.679178      11.921835       3.232117      -0.200000                    
      -0.088652      11.072600       3.229480      -0.006000                    
       0.661848      11.704814       3.703827       0.103000                    
      -0.175653      10.135999       3.780100       0.103000                    
       0.330217      10.778903       1.787716      -0.006000                    
      -0.420283      10.146689       1.313368       0.103000                    
       0.417219      11.715505       1.237095       0.103000                    
       1.920751       9.929665       1.785073      -0.200000                    
      -4.782173      -2.822391      -8.813516      -0.200000                    
      -3.877334      -1.457857      -8.058393      -0.006000                    
      -2.936923      -1.307674      -8.588520       0.103000                    
      -4.476039      -0.548855      -8.115467       0.103000                    
      -3.588842      -1.786607      -6.592436      -0.006000                    
      -4.529261      -1.936790      -6.062322       0.103000                    
      -2.990146      -2.695607      -6.535357       0.103000                    
      -2.684018      -0.422076      -5.837315      -0.200000                    
      11.939051       1.389200      -0.938104      -0.200000                    
      11.182649       2.427519       0.327093      -0.006000                    
      11.790706       2.400147       1.231222       0.103000                    
      11.116791       3.453147      -0.035841       0.103000                    
       9.778764       1.907264       0.641426      -0.006000                    
       9.170700       1.934640      -0.262698       0.103000                    
       9.844616       0.881640       1.004365       0.103000                    
       9.022358       2.945577       1.906618      -0.200000                    
      -6.621086      -1.568616       4.408504      -0.200000                    
      -7.943527      -0.576254       3.689287      -0.006000                    
      -8.724285      -0.417111       4.432961       0.103000                    
      -7.543584       0.386197       3.370380       0.103000                    
      -8.531766      -1.308752       2.481898      -0.006000                    
      -7.751018      -1.467892       1.738229       0.103000                    
      -8.931724      -2.271206       2.800805       0.103000                    
      -9.854214      -0.316397       1.762676      -0.200000                    
       7.485599      -0.689015       5.650911      -0.200000                    
       8.858810      -0.701829       4.482583      -0.006000                    
       8.905543       0.256718       3.965934       0.103000                    
       9.791824      -0.871060       5.019967       0.103000                    
       8.648935      -1.821286       3.461234      -0.006000                    
       8.602201      -2.779834       3.977883       0.103000                    
       7.715920      -1.652049       2.923843       0.103000                    
      10.022145      -1.834094       2.292898      -0.200000                    
       0.656684      -2.171164      -7.758264      -0.200000                    
       0.912052      -0.497547      -7.138029      -0.006000                    
       0.418642      -0.388476      -6.172314       0.103000                    
       1.979810      -0.311101      -7.023841       0.103000                    
       0.322245       0.508664      -8.127962      -0.006000                    
       0.815647       0.399597      -9.093672       0.103000                    
      -0.745513       0.322219      -8.242149       0.103000                    
       0.577604       2.182285      -7.507722      -0.200000                    
      -7.604503       5.297613      -4.754408      -0.200000                    
      -7.144464       5.519281      -3.025207      -0.006000                    
      -8.017879       5.833697      -2.454041       0.103000                    
      -6.768357       4.577631      -2.625445       0.103000                    
      -6.055304       6.588434      -2.920315      -0.006000                    
      -5.181882       6.274024      -3.491476       0.103000                    
      -6.431410       7.530077      -3.320069       0.103000                    
      -5.595258       6.810101      -1.191102      -0.200000                    
       6.303417       2.786574      -8.071945      -0.200000                    
       5.967193       4.523773      -7.725516      -0.006000                    
       6.803149       4.952777      -7.173172       0.103000                    
       5.836396       5.062908      -8.663704       0.103000                    
       4.691283       4.639361      -6.889417      -0.006000                    
       3.855334       4.210364      -7.441756       0.103000                    
       4.822081       4.100226      -5.951229       0.103000                    
       4.355066       6.376565      -6.542982      -0.200000                    
       7.565409      -1.192510      -4.011858      -0.200000                    
       7.752580      -1.644459      -5.747273      -0.006000                    
       8.787487      -1.491675      -6.053196       0.103000                    
       7.484900      -2.692518      -5.880947       0.103000                    
       6.833970      -0.770870      -6.603656      -0.006000                    
       5.799056      -0.923660      -6.297738       0.103000                    
       7.101651       0.277182      -6.469975       0.103000                    
       7.021127      -1.222821      -8.339071      -0.200000                    
       4.368896       7.310128       8.044897      -0.200000                    
       2.651824       7.766549       7.738013      -0.006000                    
       2.018359       6.884925       7.835031       0.103000                    
       2.340690       8.519260       8.462260       0.103000                    
       2.520278       8.335196       6.323906      -0.006000                    
       3.153738       9.216807       6.226890       0.103000                    
       2.831406       7.582478       5.599653       0.103000                    
       0.803216       8.791606       6.017024      -0.200000                    
       6.254495      -5.091773      -2.585815      -0.200000                    
       6.997272      -5.527542      -4.169894      -0.006000                    
       7.005074      -4.653191      -4.820590       0.103000                    
       8.019280      -5.870916      -4.010059       0.103000                    
       6.181684      -6.643363      -4.825771      -0.006000                    
       6.173889      -7.517718      -4.175079       0.103000                    
       5.159682      -6.299993      -4.985610       0.103000                    
       6.924459      -7.079125      -6.409858      -0.200000                    
      -2.480043      -9.636364       2.905063      -0.200000                    
      -3.483591      -9.087523       1.511306      -0.006000                    
      -4.524949      -9.006517       1.822687       0.103000                    
      -3.129752      -8.115080       1.169128       0.103000                    
      -3.370255     -10.100970       0.370954      -0.006000                    
      -2.328896     -10.181975       0.059573       0.103000                    
      -3.724094     -11.073406       0.713126       0.103000                    
      -4.373803      -9.552121      -1.022810      -0.200000                    
      -4.675683      -4.937943       5.823931      -0.200000                    
      -5.965003      -6.022265       5.181521      -0.006000                    
      -6.381776      -6.614045       5.996407       0.103000                    
      -6.753315      -5.421133       4.728606       0.103000                    
      -5.367423      -6.956286       4.127547      -0.006000                    
      -4.950662      -6.364510       3.312661       0.103000                    
      -4.579116      -7.557425       4.580457       0.103000                    
      -6.656755      -8.040610       3.485137      -0.200000                    
       7.674692       3.332752      -4.893343      -0.200000                    
       9.407011       3.430852      -5.383603      -0.006000                    
       9.507552       3.128534      -6.425939       0.103000                    
       9.760590       4.455148      -5.266421       0.103000                    
      10.240352       2.500134      -4.500624      -0.006000                    
      10.139811       2.802452      -3.458288       0.103000                    
       9.886773       1.475839      -4.617806       0.103000                    
      11.972670       2.598235      -4.990884      -0.200000                    
      -0.852233      12.804384      -1.619944      -0.200000                    
       0.597183      12.828941      -2.692121      -0.006000                    
       0.456558      12.122189      -3.509833       0.103000                    
       0.732654      13.831583      -3.097442       0.103000                    
       1.835316      12.434221      -1.884917      -0.006000                    
       1.975947      13.140980      -1.067200       0.103000                    
       1.699851      11.431586      -1.479591       0.103000                    
       3.284729      12.458788      -2.957084      -0.200000                    
       4.743974      11.136344       0.788966      -0.200000                    
       6.472228      10.945037       1.265906      -0.006000                    
       6.688137       9.890151       1.434883       0.103000                    
       7.113134      11.324389       0.470118       0.103000                    
       6.736542      11.731359       2.551280      -0.006000                    
       6.520625      12.786249       2.382308       0.103000                    
       6.095636      11.352008       3.347069       0.103000                    
       8.464788      11.540056       3.028226      -0.200000                    
      -8.850780       3.253804      -0.641228      -0.200000                    
     -10.457988       2.923636       0.106279      -0.006000                    
     -11.244081       3.106135      -0.626316       0.103000                    
     -10.500192       1.884909       0.433697       0.103000                    
     -10.659567       3.845807       1.310143      -0.006000                    
      -9.873474       3.663308       2.042738       0.103000                    
     -10.617354       4.884531       0.982720       0.103000                    
     -12.266775       3.515639       2.057650      -0.200000                    
       8.320626       6.199539       7.867604      -0.200000                    
       8.163709       5.908604       6.095170      -0.006000                    
       8.420555       4.873020       5.872581       0.103000                    
       7.137427       6.103531       5.784176       0.103000                    
       9.111072       6.842170       5.339339      -0.006000                    
       8.854213       7.877751       5.561927       0.103000                    
      10.137348       6.647237       5.650327       0.103000                    
       8.954150       6.551229       3.566899      -0.200000                    
       1.206370      10.838020      -6.718953      -0.200000                    
       0.461966       9.197079      -6.655207      -0.006000                    
       0.192754       8.959696      -5.626061       0.103000                    
      -0.432116       9.178970      -7.278303       0.103000                    
       1.463622       8.162345      -7.171322      -0.006000                    
       1.732835       8.399721      -8.200461       0.103000                    
       2.357703       8.180453      -6.548226       0.103000                    
       0.719219       6.521396      -7.107569      -0.200000                    
       2.008123      -5.504957      -9.120796      -0.200000                    
       2.906895      -5.066957      -7.620386      -0.006000                    
       2.200261      -4.756634      -6.850767       0.103000                    
       3.470850      -5.930946      -7.269076       0.103000                    
       3.870602      -3.917362      -7.920486      -0.006000                    
       4.577236      -4.227685      -8.690104       0.103000                    
       3.306653      -3.053368      -8.271791       0.103000                    
       4.769382      -3.479365      -6.420080      -0.200000                    
      -0.566361      -8.288750       5.878907      -0.200000                    
      -0.931821      -6.831715       6.876116      -0.006000                    
      -1.494781      -6.114389       6.279070       0.103000                    
      -1.521747      -7.124213       7.744658       0.103000                    
       0.377081      -6.191016       7.341653      -0.006000                    
       0.940027      -6.908346       7.938699       0.103000                    
       0.966993      -5.898521       6.473110       0.103000                    
       0.011615      -4.733988       8.338858      -0.200000                    
       5.832411      -9.331635       2.998084      -0.200000                    
       4.346554      -8.708007       3.806908      -0.006000                    
       3.797379      -8.068811       3.115700       0.103000                    
       3.716645      -9.545649       4.106044       0.103000                    
       4.740742      -7.899658       5.044475      -0.006000                    
       5.289912      -8.538866       5.735684       0.103000                    
       5.370657      -7.062019       4.745334       0.103000                    
       3.254893      -7.276032       5.853294      -0.200000                    
     -10.398760       2.762065      -4.688321      -0.200000                    
      -8.798436       1.981340      -4.971735      -0.006000                    
      -8.280241       2.497270      -5.779929       0.103000                    
      -8.200424       2.037335      -4.062260       0.103000                    
      -9.007123       0.514989      -5.354682      -0.006000                    
      -9.525331      -0.000951      -4.546482       0.103000                    
      -9.605139       0.458981      -6.264156       0.103000                    
      -7.406797      -0.265743      -5.638090      -0.200000                    
      11.226095      -1.070699      -4.731911      -0.200000                    