%nprocshared=4                                                                       
%mem=8GB                                                                             
#P pop=chelpg cam-b3lyp/gen scf=qc int=ultrafine charge td(nstates=10)               
                                                                                     
pNA CAM-B3LYP def2-TZVPD Single point - solvent def2-SV(P)                           
                                                                                     
0 1                                                                                  
 C       1.389235       0.000000      -0.000000                                 
 C       0.000000       0.000000      -0.000000                                 
 C      -0.711164       1.193419       0.000000                                 
 C      -0.034074       2.386367       0.000141                                 
 C       1.370482       2.412065       0.000933                                 
 C       2.067428       1.192342       0.000144                                 
 H       1.924301      -0.937208       0.000967                                 
 H      -1.790186       1.173300       0.000962                                 
 H      -0.583208       3.318526      -0.000772                                 
 H       3.149318       1.197759      -0.000767                                 
 N      -0.711160      -1.251627       0.001756                                 
 O      -1.932441      -1.229701       0.002542                                 
 O      -0.067142      -2.289538       0.002483                                 
 N       2.040236       3.590780      -0.024683                                 
 H       1.546357       4.451509       0.132529                                 
 H       3.032458       3.607145       0.132525                                 
Cl       5.230412       4.527220       0.526005                                 
 C       6.615935       3.931406       1.514032                                 
 H       6.537378       4.327364       2.526452                                 
 H       6.596982       2.842152       1.547191                                 
 C       7.929486       4.399152       0.884649                                 
 H       8.008042       4.003193      -0.127771                                 
 H       7.948438       5.488405       0.851490                                 
Cl       9.315018       3.803342       1.872675                                 
Cl       6.185668      -1.713010       2.030665                                 
 C       6.341389      -0.119910       2.860558                                 
 H       6.673457      -0.275566       3.886902                                 
 H       7.069393       0.495601       2.332293                                 
 C       4.984779       0.587111       2.865767                                 
 H       4.652710       0.742766       1.839413                                 
 H       4.256774      -0.028400       3.394032                                 
Cl       5.140503       2.180202       3.695649                                 
Cl      -3.307672       2.045755       1.916801                                 
 C      -4.881246       1.174879       1.789108                                 
 H      -5.606457       1.634037       2.460823                                 
 H      -5.247108       1.233519       0.764086                                 
 C      -4.685206      -0.291925       2.176883                                 
 H      -3.959996      -0.751084       1.505168                                 
 H      -4.319339      -0.350574       3.201905                                 
Cl      -6.258772      -1.162796       2.049189                                 
Cl      -5.108205      -1.292274      -2.253898                                 
 C      -4.134453       0.187461      -2.590187                                 
 H      -3.620937       0.499245      -1.680761                                 
 H      -3.400364      -0.028968      -3.366226                                 
 C      -5.059738       1.310214      -3.063140                                 
 H      -5.573246       0.998436      -3.972566                                 
 H      -5.793818       1.526649      -2.287091                                 
Cl      -4.085977       2.789955      -3.399420                                 
Cl       5.728663       1.376241      -0.591034                                 
 C       5.596401      -0.392481      -0.915072                                 
 H       6.558251      -0.869457      -0.727195                                 
 H       4.841207      -0.826624      -0.260030                                 
 C       5.193875      -0.614886      -2.374135                                 
 H       4.232025      -0.137909      -2.562003                                 
 H       5.949078      -0.180737      -3.029168                                 
Cl       5.061612      -2.383607      -2.698174                                 
                                                                                
       1.578468       5.340620       3.666163      -0.200000                    
       3.296327       5.670997       3.229372      -0.006000                    
       3.936975       5.454038       4.084037       0.103000                    
       3.585514       5.040227       2.388845       0.103000                    
       3.449257       7.142112       2.838563      -0.006000                    
       2.808606       7.359058       1.983890       0.103000                    
       3.160061       7.772877       3.679082       0.103000                    
       5.167107       7.472483       2.401764      -0.200000                    
      -3.578691      -5.862995       0.764879      -0.200000                    
      -3.115865      -4.153143       1.101306      -0.006000                    
      -2.205648      -3.908421       0.553961       0.103000                    
      -3.920308      -3.489625       0.784215       0.103000                    
      -2.871371      -3.976751       2.601145      -0.006000                    
      -3.781588      -4.221473       3.148489       0.103000                    
      -2.066937      -4.640274       2.918236       0.103000                    
      -2.408554      -2.266903       2.937572      -0.200000                    
       3.272356      -3.209436       1.084720      -0.200000                    
       3.533252      -3.589513       2.827836      -0.006000                    
       4.576212      -3.408194       3.087342       0.103000                    
       2.891077      -2.954885       3.438396       0.103000                    
       3.191949      -5.058226       3.086145      -0.006000                    
       2.148996      -5.239541       2.826628       0.103000                    
       3.834124      -5.692855       2.475575       0.103000                    
       3.452853      -5.438298       4.829250      -0.200000                    
       2.622492       7.266394      -0.610944      -0.200000                    
       3.512092       8.742912      -1.139565      -0.006000                    
       3.591095       9.438404      -0.304126       0.103000                    
       4.510547       8.464652      -1.476631       0.103000                    
       2.754313       9.410830      -2.288485      -0.006000                    
       2.675309       8.715338      -3.123934       0.103000                    
       1.755857       9.689089      -1.951428       0.103000                    
       3.643919      10.887341      -2.817106      -0.200000                    
       0.933978      -0.481171       3.766227      -0.200000                    
      -0.498571       0.610177       3.853497      -0.006000                    
      -0.402310       1.396998       3.105433       0.103000                    
      -1.405174       0.036056       3.662695       0.103000                    
      -0.577055       1.238266       5.246235      -0.006000                    
      -0.673318       0.451444       5.994289       0.103000                    
       0.329547       1.812387       5.437037       0.103000                    
      -2.009610       2.329623       5.333496      -0.200000                    
      -0.008046       3.929001      -5.715978      -0.200000                    
      -0.535344       5.263184      -4.623818      -0.006000                    
      -0.669103       6.176327      -5.203664       0.103000                    
      -1.478199       4.992873      -4.148608       0.103000                    
       0.529021       5.493386      -3.549327      -0.006000                    
       0.662787       4.580234      -2.969472       0.103000                    
       1.471883       5.763689      -4.024528       0.103000                    
       0.001716       6.827565      -2.457158      -0.200000                    
      -0.237526      -7.063498       1.802371      -0.200000                    
       0.051284      -6.616726       0.079599      -0.006000                    
      -0.361827      -5.626784      -0.113450       0.103000                    
       1.122897      -6.608570      -0.119173       0.103000                    
      -0.628324      -7.639160      -0.833183      -0.006000                    
      -0.215219      -8.629094      -0.640144       0.103000                    
      -1.699951      -7.647312      -0.634411       0.103000                    
      -0.339528      -7.192384      -2.555955      -0.200000                    
      -2.973101      -5.489016      -3.691160      -0.200000                    
      -2.501708      -3.804279      -3.254929      -0.006000                    
      -3.384960      -3.250296      -2.937265       0.103000                    
      -1.776046      -3.828688      -2.442047       0.103000                    
      -1.880041      -3.117272      -4.472271      -0.006000                    
      -0.996794      -3.671246      -4.789935       0.103000                    
      -2.605703      -3.092861      -5.285152       0.103000                    
      -1.408648      -1.432534      -4.036039      -0.200000                    
       1.820228      -3.265405      -4.901828      -0.200000                    
       2.704807      -4.549401      -3.996447      -0.006000                    
       2.402970      -5.529024      -4.366773       0.103000                    
       3.777741      -4.421505      -4.139314       0.103000                    
       2.373107      -4.443563      -2.506776      -0.006000                    
       2.674945      -3.463939      -2.136440       0.103000                    
       1.300160      -4.571455      -2.363909       0.103000                    
       3.257687      -5.727558      -1.601385      -0.200000                    
       1.778882       1.694563      -3.666432      -0.200000                    
       2.129143       0.989779      -5.288609      -0.006000                    
       2.570378       1.753300      -5.929169       0.103000                    
       2.825718       0.158429      -5.181119       0.103000                    
       0.828533       0.486523      -5.917561      -0.006000                    
       0.387308      -0.276992      -5.276991       0.103000                    
       0.131963       1.317864      -6.025050       0.103000                    
       1.178803      -0.218254      -7.539729      -0.200000                    
      -2.877527      11.134372      -0.831238      -0.200000                    
      -2.449634       9.452774      -0.341253      -0.006000                    
      -3.230213       9.052869       0.305841       0.103000                    
      -2.357863       8.827551      -1.229280       0.103000                    
      -1.118876       9.464487       0.413244      -0.006000                    
      -0.338296       9.864391      -0.233850       0.103000                    
      -1.210651      10.089719       1.301272       0.103000                    
      -0.690988       7.782897       0.903229      -0.200000                    
      -7.328635       4.959026       1.909447      -0.200000                    
      -5.827135       4.919702       0.912015      -0.006000                    
      -4.985284       4.615904       1.534072       0.103000                    
      -5.951407       4.208253       0.095749       0.103000                    
      -5.559773       6.312222       0.337794      -0.006000                    
      -6.401628       6.616027      -0.284263       0.103000                    
      -5.435504       7.023679       1.154060       0.103000                    
      -4.058272       6.272897      -0.659638      -0.200000                    
       6.193500       3.447902      -4.845949      -0.200000                    
       4.992711       4.096458      -6.024256      -0.006000                    
       5.515076       4.491966      -6.895254       0.103000                    
       4.320437       3.297020      -6.335515       0.103000                    
       4.183461       5.214559      -5.364449      -0.006000                    
       3.661090       4.819059      -4.493452       0.103000                    
       4.855735       6.013997      -5.053190       0.103000                    
       2.982664       5.863110      -6.542756      -0.200000                    
      -0.015996      -4.229854       4.854047      -0.200000                    
       0.306561      -4.608234       6.587144      -0.006000                    
      -0.587943      -5.037643       7.038122       0.103000                    
       1.127319      -5.321990       6.656792       0.103000                    
       0.684099      -3.323956       7.327750      -0.006000                    
       1.578603      -2.894547       6.876773       0.103000                    
      -0.136659      -2.610200       7.258102       0.103000                    
       1.006655      -3.702337       9.060838      -0.200000                    
      -6.838205       8.314857       5.900585      -0.200000                    
      -5.463238       8.029342       4.769733      -0.006000                    
      -5.714459       8.423453       3.785095       0.103000                    
      -4.572463       8.532092       5.146148       0.103000                    
      -5.193794       6.527144       4.663594      -0.006000                    
      -4.942573       6.133034       5.648232       0.103000                    
      -6.084569       6.024395       4.287179       0.103000                    
      -3.818827       6.241632       3.532742      -0.200000                    
      -4.469869       5.785587      -5.346475      -0.200000                    
      -4.991829       6.544765      -3.796644      -0.006000                    
      -5.857368       6.011376      -3.403888       0.103000                    
      -4.176424       6.495811      -3.075081       0.103000                    
      -5.364676       8.007458      -4.045495      -0.006000                    
      -4.499123       8.540844      -4.438251       0.103000                    
      -6.180072       8.056417      -4.767058       0.103000                    
      -5.886637       8.766636      -2.495674      -0.200000                    
       8.098373      -4.327637      -2.669779      -0.200000                    
       7.358630      -4.306420      -1.025628      -0.006000                    
       7.393890      -3.293743      -0.624115       0.103000                    
       6.321804      -4.636455      -1.089125       0.103000                    
       8.137125      -5.247183      -0.104019      -0.006000                    
       8.101879      -6.259864      -0.505522       0.103000                    
       9.173951      -4.917148      -0.040512       0.103000                    
       7.397388      -5.225976       1.540142      -0.200000                    
      -0.553901       5.909626       7.696697      -0.200000                    
      -0.510824       6.656962       6.056402      -0.006000                    
       0.519000       6.899113       5.794113       0.103000                    
      -0.916655       5.956269       5.326845       0.103000                    
      -1.350625       7.935682       6.056433      -0.006000                    
      -2.380449       7.693531       6.318721       0.103000                    
      -0.944793       8.636375       6.785989       0.103000                    
      -1.307553       8.683026       4.416137      -0.200000                    
      -6.740829      -4.652518       2.132164      -0.200000                    
      -7.494827      -5.498185       0.729591      -0.006000                    
      -8.554600      -5.248299       0.681276       0.103000                    
      -7.004591      -5.182932      -0.191440       0.103000                    
      -7.335210      -7.010117       0.899871      -0.006000                    
      -6.275442      -7.259995       0.948175       0.103000                    
      -7.825445      -7.325369       1.820891       0.103000                    
      -8.089212      -7.855775      -0.502713      -0.200000                    
      -7.112197      -7.968288      -5.210572      -0.200000                    
      -6.678882      -6.698300      -4.006296      -0.006000                    
      -7.355462      -6.759459      -3.153995       0.103000                    
      -5.654030      -6.851960      -3.668682       0.103000                    
      -6.800035      -5.318045      -4.654833      -0.006000                    
      -6.123448      -5.256882      -5.507144       0.103000                    
      -7.824889      -5.164386      -4.992456       0.103000                    
      -6.366722      -4.048057      -3.450567      -0.200000                    
       5.292246      -0.021555       9.844119      -0.200000                    
       4.656670      -1.022294       8.485660      -0.006000                    
       5.097192      -2.018229       8.530663       0.103000                    
       3.572625      -1.100219       8.567688       0.103000                    
       5.020711      -0.363981       7.153584      -0.006000                    
       4.580194       0.631944       7.108571       0.103000                    
       6.104748      -0.286062       7.071557       0.103000                    
       4.385135      -1.364721       5.795114      -0.200000                    
       2.614844      14.143198       1.591536      -0.200000                    
       2.021576      12.815109       2.656950      -0.006000                    
       2.694909      12.702310       3.506570       0.103000                    
       1.020962      13.056187       3.015568       0.103000                    
       1.977400      11.507109       1.864806      -0.006000                    
       1.304067      11.619909       1.015187       0.103000                    
       2.978013      11.266032       1.506187       0.103000                    
       1.384132      10.179022       2.930220      -0.200000                    
       8.701906       1.674000       6.661901      -0.200000                    
       7.453948       2.910880       6.257548      -0.006000                    
       6.649264       2.443489       5.690160       0.103000                    
       7.051379       3.335351       7.177184       0.103000                    
       8.089693       4.021652       5.419443      -0.006000                    
       8.894381       4.489056       5.986830       0.103000                    
       8.492257       3.597189       4.499807       0.103000                    
       6.841730       5.258541       5.015089      -0.200000                    
      -6.620700      -0.224057       5.125957      -0.200000                    
      -6.781720      -1.697366       6.152799      -0.006000                    
      -6.575872      -1.440637       7.191862       0.103000                    
      -7.795079      -2.089840       6.069181       0.103000                    
      -5.784311      -2.757925       5.682918      -0.006000                    
      -5.990168      -3.014660       4.643857       0.103000                    
      -4.770959      -2.365456       5.766547       0.103000                    
      -5.945331      -4.231235       6.709760      -0.200000                    
       8.820689       0.005875      -6.163053      -0.200000                    
       8.698262      -0.988391      -4.663964      -0.006000                    
       7.656183      -1.255660      -4.489037       0.103000                    
       9.291665      -1.895248      -4.779690       0.103000                    
       9.224405      -0.183719      -3.473995      -0.006000                    
      10.266480       0.083559      -3.648912       0.103000                    
       8.631002       0.723138      -3.358269       0.103000                    
       9.101974      -1.177975      -1.974906      -0.200000                    
      -8.176736      -0.766677      -4.067277      -0.200000                    
      -8.909731      -0.606701      -2.427789      -0.006000                    
      -8.216825      -0.083103      -1.769253       0.103000                    
      -9.839925      -0.043159      -2.498820       0.103000                    
      -9.198957      -1.997715      -1.860565      -0.006000                    
      -9.891850      -2.521318      -2.519102       0.103000                    
      -8.268758      -2.561265      -1.789525       0.103000                    
      -9.931952      -1.837740      -0.221077      -0.200000                    
      -6.414590      -8.331210       4.349970      -0.200000                    
      -4.852328      -7.783174       5.064042      -0.006000                    
      -5.050035      -7.105651       5.894616       0.103000                    
      -4.294422      -8.647263       5.424621       0.103000                    
      -4.031557      -7.055709       3.997529      -0.006000                    
      -3.833851      -7.733231       3.166956       0.103000                    
      -4.589463      -6.191619       3.636950       0.103000                    
      -2.469296      -6.507671       4.711602      -0.200000                    
       4.897721      -8.495366       0.849364      -0.200000                    
       3.150866      -8.839462       0.564651      -0.006000                    
       2.553083      -8.341074       1.327645       0.103000                    
       2.863615      -8.471363      -0.420207       0.103000                    
       2.910446     -10.348674       0.634456      -0.006000                    
       3.508229     -10.847062      -0.128538       0.103000                    
       3.197698     -10.716774       1.619304       0.103000                    
       1.163588     -10.692783       0.349744      -0.200000                    
       7.559114       8.419812      -1.342450      -0.200000                    
       8.772643       7.513779      -2.320895      -0.006000                    
       9.762178       7.941257      -2.159434       0.103000                    
       8.775142       6.466711      -2.018201       0.103000                    
       8.409954       7.614526      -3.803691      -0.006000                    
       7.420424       7.187040      -3.965152       0.103000                    
       8.407460       8.661584      -4.106385       0.103000                    
       9.623487       6.708484      -4.782126      -0.200000                    
      -2.730632       0.720240      -6.719054      -0.200000                    
      -3.316842       1.975128      -7.873384      -0.006000                    
      -2.540774       2.726533      -8.018517       0.103000                    
      -3.553646       1.507751      -8.829109       0.103000                    
      -4.572037       2.641897      -7.307523      -0.006000                    
      -5.348110       1.890500      -7.162391       0.103000                    
      -4.335234       3.109273      -6.351808       0.103000                    
      -5.158247       3.896785      -8.461853      -0.200000                    
       5.147563      -1.196389      -6.203704      -0.200000                    
       5.281486      -2.274348      -7.642780      -0.006000                    
       4.455147      -2.074583      -8.324838       0.103000                    
       6.226674      -2.085680      -8.151664       0.103000                    
       5.228292      -3.735347      -7.192207      -0.006000                    
       6.054640      -3.935108      -6.510150       0.103000                    
       4.283113      -3.924010      -6.683325       0.103000                    
       5.362216      -4.813306      -8.631285      -0.200000                    
      -1.962314      -2.796246      -8.233953      -0.200000                    
      -0.812520      -4.134409      -8.605773      -0.006000                    
      -1.230104      -5.079487      -8.258850       0.103000                    
      -0.647232      -4.183225      -9.681999       0.103000                    
       0.518295      -3.874907      -7.897268      -0.006000                    
       0.935880      -2.929829      -8.244192       0.103000                    
       0.353007      -3.826092      -6.821042       0.103000                    
       1.668090      -5.213071      -8.269087      -0.200000                    
      13.336949       5.351067      -3.119222      -0.200000                    
      11.929038       4.665298      -2.225691      -0.006000                    
      12.287018       4.038307      -1.409194       0.103000                    
      11.324002       5.477180      -1.822273       0.103000                    
      11.080358       3.823271      -3.180214      -0.006000                    
      10.722386       4.450267      -3.996712       0.103000                    
      11.685403       3.011395      -3.583633       0.103000                    
       9.672446       3.137502      -2.286683      -0.200000                    
     -10.532027       6.312061      -0.894619      -0.200000                    
      -9.250424       5.820024      -2.063492      -0.006000                    
      -9.612024       5.964266      -3.081507       0.103000                    
      -8.360186       6.428323      -1.904281       0.103000                    
      -8.904526       4.345195      -1.849968      -0.006000                    
      -8.542912       4.200952      -0.831953       0.103000                    
      -9.794759       3.736889      -2.009178       0.103000                    
      -7.622917       3.853152      -3.018840      -0.200000                    
       1.343718       0.506468       8.018209      -0.200000                    
       1.673680       2.276577       8.111497      -0.006000                    
       1.847453       2.667355       7.108981       0.103000                    
       0.817019       2.783196       8.555744       0.103000                    
       2.913072       2.519466       8.974796      -0.006000                    
       2.739299       2.128688       9.977311       0.103000                    
       3.769733       2.012847       8.530548       0.103000                    
       3.243033       4.289575       9.068082      -0.200000                    
      -3.973594      -8.450254      -1.808259      -0.200000                    
      -3.993639     -10.180481      -2.315094      -0.006000                    
      -3.380816     -10.304955      -3.207783       0.103000                    
      -3.595102     -10.799390      -1.511328       0.103000                    
      -5.431046     -10.605731      -2.620604      -0.006000                    
      -6.043869     -10.481257      -1.727915       0.103000                    
      -5.829568      -9.986826      -3.424370       0.103000                    
      -5.451076     -12.335961      -3.127429      -0.200000                    
       3.127324       7.521473       6.965945      -0.200000                    
       2.151547       9.015964       7.221378      -0.006000                    
       2.303531       9.696962       6.384075       0.103000                    
       1.095863       8.753639       7.289632       0.103000                    
       2.592076       9.697115       8.518414      -0.006000                    
       2.440092       9.016117       9.355717       0.103000                    
       3.647759       9.959440       8.450160       0.103000                    
       1.616300      11.191606       8.773848      -0.200000                    
       9.007585      11.165173       4.054487      -0.200000                    
       7.845601      11.547099       2.729793      -0.006000                    
       7.080658      12.228284       3.102331       0.103000                    
       8.378474      12.016088       1.902735       0.103000                    
       7.184742      10.256036       2.243224      -0.006000                    
       7.949683       9.574851       1.870687       0.103000                    
       6.651869       9.787047       3.070282       0.103000                    
       6.022753      10.637971       0.918531      -0.200000                    
     -10.421696       1.594534       1.273586      -0.200000                    