%nprocshared=4                                                                       
%mem=8GB                                                                             
#P pop=chelpg cam-b3lyp/gen scf=qc int=ultrafine charge td(nstates=10)               
                                                                                     
pNA CAM-B3LYP def2-TZVPD Single point - solvent def2-SV(P)                           
                                                                                     
0 1                                                                                  
 C       1.389235       0.000000      -0.000000                                 
 C       0.000000       0.000000      -0.000000                                 
 C      -0.711164       1.193419       0.000000                                 
 C      -0.034074       2.386367       0.000141                                 
 C       1.370482       2.412065       0.000933                                 
 C       2.067428       1.192342       0.000144                                 
 H       1.924301      -0.937208       0.000967                                 
 H      -1.790186       1.173300       0.000962                                 
 H      -0.583208       3.318526      -0.000772                                 
 H       3.149318       1.197759      -0.000767                                 
 N      -0.711160      -1.251627       0.001756                                 
 O      -1.932441      -1.229701       0.002542                                 
 O      -0.067142      -2.289538       0.002483                                 
 N       2.040236       3.590780      -0.024683                                 
 H       1.546357       4.451509       0.132529                                 
 H       3.032458       3.607145       0.132525                                 
Cl       1.218250       6.192932       2.510023                                 
 C      -0.294344       5.245070       2.764117                                 
 H      -0.465568       4.596410       1.905114                                 
 H      -0.196235       4.638200       3.664137                                 
 C      -1.476197       6.203492       2.922303                                 
 H      -1.304964       6.852153       3.781303                                 
 H      -1.574306       6.810362       2.022283                                 
Cl      -2.988788       5.255632       3.176407                                 
Cl       8.560912       5.698740      -1.890029                                 
 C       6.942864       5.059680      -1.416351                                 
 H       6.580246       4.380342      -2.187639                                 
 H       7.025958       4.524642      -0.470414                                 
 C       5.961331       6.222568      -1.259310                                 
 H       6.323949       6.901917      -0.488022                                 
 H       5.878237       6.757606      -2.205247                                 
Cl       4.343273       5.583519      -0.785629                                 
Cl       0.576840      -6.763740       0.309482                                 
 C       1.825758      -6.140499       1.450831                                 
 H       1.378738      -5.993187       2.433893                                 
 H       2.640858      -6.860120       1.526224                                 
 C       2.369432      -4.807383       0.933520                                 
 H       2.816446      -4.954694      -0.049530                                 
 H       1.554336      -4.087761       0.858136                                 
Cl       3.618350      -4.184132       2.074868                                 
Cl       0.245966       5.915081      -1.712514                                 
 C       1.400339       5.249117      -2.926922                                 
 H       2.126668       4.609562      -2.425561                                 
 H       0.852849       4.666308      -3.667556                                 
 C       2.129523       6.400304      -3.622187                                 
 H       1.403193       7.039860      -4.123548                                 
 H       2.677009       6.983112      -2.881563                                 
Cl       3.283893       5.734340      -4.836605                                 
Cl       4.872542       3.085816       1.914001                                 
 C       5.704487       3.991379       3.232593                                 
 H       4.960722       4.432696       3.895912                                 
 H       6.337515       3.308636       3.799237                                 
 C       6.566535       5.099525       2.624917                                 
 H       7.310296       4.658197       1.961590                                 
 H       5.933497       5.782258       2.058277                                 
Cl       7.398479       6.005088       3.943510                                 
                                                                                
      -2.904466       0.751151       2.662492      -0.200000                    
      -3.444168      -0.937589       2.990865      -0.006000                    
      -2.633492      -1.629312       2.762243       0.103000                    
      -3.718797      -1.033759       4.041212       0.103000                    
      -4.655379      -1.265149       2.115624      -0.006000                    
      -5.466056      -0.573426       2.344247       0.103000                    
      -4.380753      -1.168979       1.065269       0.103000                    
      -5.195081      -2.953888       2.443998      -0.200000                    
       1.431979      -3.895013      -2.994386      -0.200000                    
      -0.271735      -4.482780      -2.941772      -0.006000                    
      -0.411002      -5.261511      -3.691519       0.103000                    
      -0.486261      -4.887697      -1.952841       0.103000                    
      -1.221688      -3.319535      -3.233001      -0.006000                    
      -1.082411      -2.540815      -2.483257       0.103000                    
      -1.007159      -2.914628      -4.221922       0.103000                    
      -2.925403      -3.907303      -3.180387      -0.200000                    
       4.288769      -0.867060       1.577340      -0.200000                    
       5.535576      -1.214928       2.832486      -0.006000                    
       5.134610      -0.979640       3.818288       0.103000                    
       5.807099      -2.269755       2.792711       0.103000                    
       6.776235      -0.359293       2.569726      -0.006000                    
       7.177201      -0.594580       1.583925       0.103000                    
       6.504709       0.695533       2.609493       0.103000                    
       8.023039      -0.707162       3.824863      -0.200000                    
      -3.252876       4.036747      -0.673300      -0.200000                    
      -4.676057       3.368826       0.209500      -0.006000                    
      -4.339027       2.870528       1.118364       0.103000                    
      -5.355616       4.180079       0.470318       0.103000                    
      -5.403577       2.362108      -0.683548      -0.006000                    
      -5.740607       2.860415      -1.592413       0.103000                    
      -4.724014       1.550855      -0.944356       0.103000                    
      -6.826755       1.694188       0.199262      -0.200000                    
       0.573880      -0.004259       3.523152      -0.200000                    
       0.906883      -1.775381       3.578520      -0.006000                    
       0.189935      -2.300040       2.947113       0.103000                    
       1.917400      -1.966797       3.217717       0.103000                    
       0.777382      -2.273815       5.019059      -0.006000                    
       1.494340      -1.749157       5.650462       0.103000                    
      -0.233125      -2.082399       5.379858       0.103000                    
       1.110395      -4.044937       5.074423      -0.200000                    
       4.421496       9.253044       0.965676      -0.200000                    
       2.924686       9.662561       0.047604      -0.006000                    
       2.666368      10.707208       0.220706       0.103000                    
       3.095628       9.501875      -1.016776       0.103000                    
       1.776323       8.768881       0.519735      -0.006000                    
       2.034632       7.724236       0.346637       0.103000                    
       1.605385       8.929569       1.584125       0.103000                    
       0.279513       9.178397      -0.398337      -0.200000                    
      -3.821119      -6.652817      -0.511787      -0.200000                    
      -3.073657      -5.238836       0.320648      -0.006000                    
      -2.261553      -4.844873      -0.290270       0.103000                    
      -3.826179      -4.464366       0.468352       0.103000                    
      -2.522552      -5.679105       1.678150      -0.006000                    
      -3.334656      -6.073069       2.289068       0.103000                    
      -1.770030      -6.453575       1.530446       0.103000                    
      -1.775094      -4.265126       2.510576      -0.200000                    
      -5.005412      -0.450708      -2.794502      -0.200000                    
      -6.348189      -1.463999      -2.145638      -0.006000                    
      -7.002785      -0.848465      -1.528727       0.103000                    
      -6.918758      -1.884910      -2.973429       0.103000                    
      -5.767813      -2.597890      -1.298407      -0.006000                    
      -5.113217      -3.213414      -1.915318       0.103000                    
      -5.197244      -2.176969      -0.470617       0.103000                    
      -7.110591      -3.611181      -0.649542      -0.200000                    
      -3.004080       3.138558      -4.000967      -0.200000                    
      -2.695273       1.698814      -5.041470      -0.006000                    
      -3.611933       1.117322      -5.138933       0.103000                    
      -2.366136       2.026654      -6.027454       0.103000                    
      -1.607799       0.832371      -4.403461      -0.006000                    
      -0.691139       1.413853      -4.305996       0.103000                    
      -1.936939       0.504520      -3.417485       0.103000                    
      -1.298992      -0.607383      -5.443962      -0.200000                    
       5.569439       1.771340      -7.175437      -0.200000                    
       4.999932       1.857063      -5.466838      -0.006000                    
       5.740695       1.396718      -4.813158       0.103000                    
       4.861420       2.899873      -5.181653       0.103000                    
       3.670475       1.111844      -5.334445      -0.006000                    
       2.929712       1.572190      -5.988124       0.103000                    
       3.808987       0.069034      -5.619628       0.103000                    
       3.100968       1.197568      -3.625844      -0.200000                    
      10.114785       1.069121      -3.208126      -0.200000                    
       8.461775       1.227191      -2.505545      -0.006000                    
       7.904050       1.985297      -3.055257       0.103000                    
       7.943319       0.271136      -2.577184       0.103000                    
       8.569457       1.639419      -1.036230      -0.006000                    
       9.127192       0.881304      -0.486521       0.103000                    
       9.087914       2.595475      -0.964592       0.103000                    
       6.916445       1.797488      -0.333660      -0.200000                    
       5.577515      -1.239683      -3.764298      -0.200000                    
       5.097502      -2.903702      -3.262715      -0.006000                    
       4.495749      -2.850603      -2.355524       0.103000                    
       4.515853      -3.369606      -4.058044       0.103000                    
       6.351926      -3.737061      -2.993869      -0.006000                    
       6.953675      -3.790151      -3.901070       0.103000                    
       6.933572      -3.271158      -2.198549       0.103000                    
       5.871910      -5.401081      -2.492295      -0.200000                    
      -1.244982       8.274896      -4.611426      -0.200000                    
      -2.313895       8.557337      -3.187154      -0.006000                    
      -2.019995       7.893019      -2.374586       0.103000                    
      -2.219945       9.593312      -2.861825       0.103000                    
      -3.766379       8.275147      -3.575763      -0.006000                    
      -4.060279       8.939456      -4.388331       0.103000                    
      -3.860329       7.239172      -3.901093       0.103000                    
      -4.835291       8.557589      -2.151492      -0.200000                    
      -1.921990      -0.352674       7.572941      -0.200000                    
      -2.251387       1.302430       6.938122      -0.006000                    
      -2.773781       1.228720       5.984378       0.103000                    
      -2.869970       1.848512       7.650198       0.103000                    
      -0.928613       2.044555       6.738365      -0.006000                    
      -0.406210       2.118264       7.692105       0.103000                    
      -0.310034       1.498471       6.026279       0.103000                    
      -1.258005       3.699657       6.103533      -0.200000                    
       2.654468      10.539224       3.670322      -0.200000                    
       3.948818       9.469565       4.327093      -0.006000                    
       3.674273       8.426820       4.168030       0.103000                    
       4.888403       9.680098       3.816394       0.103000                    
       4.114008       9.729970       5.825517      -0.006000                    
       4.388555      10.772715       5.984581       0.103000                    
       3.174424       9.519428       6.336218       0.103000                    
       5.408359       8.660301       6.482289      -0.200000                    
       3.683237       3.158985       6.273052      -0.200000                    
       4.347202       4.158334       7.618924      -0.006000                    
       4.037304       3.734073       8.573871       0.103000                    
       5.435581       4.168375       7.561615       0.103000                    
       3.817658       5.588746       7.501175      -0.006000                    
       4.127547       6.012997       6.546231       0.103000                    
       2.729282       5.578698       7.558495       0.103000                    
       4.481614       6.588086       8.847050      -0.200000                    
      -1.570926       8.439202       9.004336      -0.200000                    
      -0.993333       7.762935       7.435896      -0.006000                    
      -1.039248       6.674530       7.470333       0.103000                    
      -1.626420       8.128136       6.627341       0.103000                    
       0.450830       8.204367       7.191196      -0.006000                    
       0.496744       9.292771       7.156761       0.103000                    
       1.083916       7.839166       7.999753       0.103000                    
       1.028423       7.528099       5.622757      -0.200000                    
      -5.506462       0.448332       7.273869      -0.200000                    
      -6.379095      -1.073519       6.857468      -0.006000                    
      -5.687897      -1.914671       6.908865       0.103000                    
      -7.194822      -1.229619       7.563271       0.103000                    
      -6.945257      -0.965293       5.440402      -0.006000                    
      -7.636455      -0.124141       5.389005       0.103000                    
      -6.129526      -0.809202       4.734609       0.103000                    
      -7.817890      -2.487144       5.024001      -0.200000                    
      -7.199061       1.894331      -3.664820      -0.200000                    
      -6.625615       3.339472      -4.577894      -0.006000                    
      -6.050015       3.984229      -3.913896       0.103000                    
      -5.996825       3.018836      -5.408399       0.103000                    
      -7.830210       4.111493      -5.119481      -0.006000                    
      -8.405810       3.466736      -5.783480       0.103000                    
      -8.459004       4.432128      -4.288986       0.103000                    
      -7.256767       5.556633      -6.032566      -0.200000                    
      -8.069592       6.238769       4.730732      -0.200000                    
      -7.710903       4.590752       4.093349      -0.006000                    
      -8.642031       4.037593       3.971086       0.103000                    
      -7.208843       4.674975       3.129615       0.103000                    
      -6.803651       3.849763       5.077310      -0.006000                    
      -5.872517       4.402921       5.199560       0.103000                    
      -7.305701       3.765540       6.041040       0.103000                    
      -6.444954       2.201745       4.439913      -0.200000                    
       8.699695      -7.188305      -0.295583      -0.200000                    
       9.011052      -5.433840      -0.571017      -0.006000                    
      10.082861      -5.242499      -0.520618       0.103000                    
       8.636513      -5.148013      -1.553848       0.103000                    
       8.296103      -4.614069       0.504735      -0.006000                    
       7.224297      -4.805420       0.454346       0.103000                    
       8.670636      -4.899895       1.487578       0.103000                    
       8.607453      -2.859604       0.229313      -0.200000                    
      -6.051862      -2.563525      -5.464642      -0.200000                    
      -6.069096      -0.979656      -6.326041      -0.006000                    
      -6.873095      -0.974725      -7.061926       0.103000                    
      -6.229458      -0.176444      -5.606968       0.103000                    
      -4.729280      -0.769641      -7.033970      -0.006000                    
      -3.925280      -0.774572      -6.298084       0.103000                    
      -4.568920      -1.572853      -7.753053       0.103000                    
      -4.746513       0.814228      -7.895369      -0.200000                    
      -2.095494      -6.874396       8.300456      -0.200000                    
      -1.126358      -7.460818       6.897672      -0.006000                    
      -0.078638      -7.199042       7.044772       0.103000                    
      -1.222662      -8.543451       6.816421       0.103000                    
      -1.639652      -6.805976       5.613904      -0.006000                    
      -2.687381      -7.067753       5.466807       0.103000                    
      -1.543357      -5.723334       5.695157       0.103000                    
      -0.670515      -7.392400       4.211120      -0.200000                    
      -0.149230      13.039915       2.019521      -0.200000                    
      -0.833973      11.372631       2.066983      -0.006000                    
      -1.530853      11.242101       1.239156       0.103000                    
      -0.026699      10.645436       1.980720       0.103000                    
      -1.570565      11.161394       3.391034      -0.006000                    
      -0.873698      11.291922       4.218854       0.103000                    
      -2.377842      11.888576       3.477288       0.103000                    
      -2.255321       9.494108       3.438490      -0.200000                    
       7.475694       7.739494      -7.389051      -0.200000                    
       6.932367       6.162733      -6.703793      -0.006000                    
       5.926742       6.270121      -6.297408       0.103000                    
       6.928309       5.407028      -7.489212       0.103000                    
       7.889009       5.734247      -5.589515      -0.006000                    
       8.894634       5.626858      -5.995901       0.103000                    
       7.893063       6.489951      -4.804106       0.103000                    
       7.345683       4.157485      -4.904257      -0.200000                    
       4.074813       8.681312      -6.806901      -0.200000                    
       4.451331       9.333282      -5.168611      -0.006000                    
       4.289967       8.555832      -4.421988       0.103000                    
       5.491330       9.657813      -5.136649       0.103000                    
       3.537040      10.523167      -4.870822      -0.006000                    
       3.698413      11.300617      -5.617448       0.103000                    
       2.497040      10.198637      -4.902783       0.103000                    
       3.913566      11.175138      -3.232535      -0.200000                    
      -7.027116       6.991620       0.580875      -0.200000                    
      -6.797443       8.779097       0.525636      -0.006000                    
      -6.898515       9.127056      -0.502303       0.103000                    
      -7.550354       9.261815       1.148538       0.103000                    
      -5.402985       9.130411       1.047568      -0.006000                    
      -5.301912       8.782442       2.075507       0.103000                    
      -4.650074       8.647693       0.424665       0.103000                    
      -5.173311      10.917889       0.992329      -0.200000                    
      -8.751337       0.402601       2.904017      -0.200000                    
      -9.915516      -0.927289       2.547661      -0.006000                    
      -9.969270      -1.602087       3.401900       0.103000                    
     -10.901819      -0.505223       2.355139       0.103000                    
      -9.443510      -1.701727       1.315644      -0.006000                    
      -9.389766      -1.026929       0.461408       0.103000                    
      -8.457215      -2.123793       1.508168       0.103000                    
     -10.607698      -3.031617       0.959291      -0.200000                    
       6.583241      -3.334142       5.621867      -0.200000                    
       5.073723      -4.001975       6.347336      -0.006000                    
       4.406950      -4.338688       5.553616       0.103000                    
       5.322515      -4.843074       6.994359       0.103000                    
       4.378831      -2.914979       7.169487      -0.006000                    
       5.045599      -2.578275       7.963221       0.103000                    
       4.130040      -2.073890       6.522465       0.103000                    
       2.869313      -3.582821       7.894956      -0.200000                    
      -6.583311     -10.414857       2.917805      -0.200000                    
      -6.981128      -8.987110       1.891065      -0.006000                    
      -6.694131      -9.189938       0.859349       0.103000                    
      -8.052417      -8.792138       1.938806       0.103000                    
      -6.217443      -7.763585       2.401107      -0.006000                    
      -6.504449      -7.560757       3.432827       0.103000                    
      -5.146164      -7.958556       2.353370       0.103000                    
      -6.615271      -6.335827       1.374370      -0.200000                    
       4.661465      -8.190343      -0.213671      -0.200000                    
       4.075997      -9.675422      -1.051972      -0.006000                    
       4.929761     -10.266175      -1.383661       0.103000                    
       3.470235     -10.265953      -0.364747       0.103000                    
       3.230503      -9.277489      -2.263231      -0.006000                    
       2.376730      -8.686734      -1.931538       0.103000                    
       3.836266      -8.686956      -2.950456       0.103000                    
       2.645036     -10.762566      -3.101531      -0.200000                    
      -5.329884      -6.842344      -5.126126      -0.200000                    
      -6.168284      -8.026227      -4.055428      -0.006000                    
      -6.833908      -8.648983      -4.652977       0.103000                    
      -5.428992      -8.655460      -3.560018       0.103000                    
      -6.983818      -7.273182      -3.002687      -0.006000                    
      -6.318199      -6.650418      -2.405149       0.103000                    
      -7.723111      -6.643940      -3.498098       0.103000                    
      -7.822219      -8.457055      -1.931990      -0.200000                    
       7.457487       1.963203       5.992568      -0.200000                    
       7.248279       0.681981       7.243800      -0.006000                    
       7.178389      -0.291706       6.759011       0.103000                    
       8.103124       0.690978       7.919869       0.103000                    
       5.968113       0.948775       8.037765      -0.006000                    
       6.038003       1.922462       8.522552       0.103000                    
       5.113265       0.939777       7.361686       0.103000                    
       5.758902      -0.332458       9.288987      -0.200000                    
       8.515522      13.210070      -1.861247      -0.200000                    
       7.780964      11.576372      -1.655517      -0.006000                    
       8.142000      11.129411      -0.729330       0.103000                    
       6.695625      11.668099      -1.616008       0.103000                    
       8.174430      10.687899      -2.837099      -0.006000                    
       7.813393      11.134860      -3.763286       0.103000                    
       9.259768      10.596171      -2.876608       0.103000                    
       7.439880       9.054201      -2.631371      -0.200000                    
       0.455100       3.182593      -7.611535      -0.200000                    
       0.313398       4.540716      -8.788935      -0.006000                    
       0.938036       4.335045      -9.658117       0.103000                    
      -0.725205       4.642358      -9.103473       0.103000                    
       0.774457       5.840247      -8.126326      -0.006000                    
       0.149819       6.045917      -7.257142       0.103000                    
       1.813060       5.738615      -7.811788       0.103000                    
       0.632755       7.198369      -9.303725      -0.200000                    
       1.622415       1.469327     -10.661488      -0.200000                    
       1.917445       0.673987      -9.070520      -0.006000                    
       2.376781       1.387784      -8.386831       0.103000                    
       0.970419       0.330095      -8.654798       0.103000                    
       2.852931      -0.521004      -9.263497      -0.006000                    
       2.393595      -1.234801      -9.947187       0.103000                    
       3.799947      -0.177112      -9.679217       0.103000                    
       3.147952      -1.316354      -7.672525      -0.200000                    
      -4.612770     -11.525748      -2.275578      -0.200000                    
      -4.193068     -10.571709      -0.804305      -0.006000                    
      -4.451223      -9.524901      -0.963922       0.103000                    
      -4.749478     -10.957209       0.049944       0.103000                    
      -2.692623     -10.690312      -0.530483      -0.006000                    
      -2.434468     -11.737120      -0.370865       0.103000                    
      -2.136213     -10.304802      -1.384732       0.103000                    
      -2.272919      -9.736272       0.940800      -0.200000                    
       2.848980      -9.741796       2.828646      -0.200000                    
       1.165252     -10.381409       2.911290      -0.006000                    
       0.814825     -10.350511       3.942880       0.103000                    
       0.513140      -9.770348       2.287337       0.103000                    
       1.143404     -11.826264       2.408971      -0.006000                    
       1.493840     -11.857162       1.377378       0.103000                    
       1.795516     -12.437326       3.032925       0.103000                    
      -0.540324     -12.465878       2.491615      -0.200000                    
       5.283203      -6.662517       4.299818      -0.200000                    