%nprocshared=4                                                                       
%mem=8GB                                                                             
#P pop=chelpg cam-b3lyp/gen scf=qc int=ultrafine charge td(nstates=10)               
                                                                                     
pNA CAM-B3LYP def2-TZVPD Single point - solvent def2-SV(P)                           
                                                                                     
0 1                                                                                  
 C       1.389235       0.000000      -0.000000                                 
 C       0.000000       0.000000      -0.000000                                 
 C      -0.711164       1.193419       0.000000                                 
 C      -0.034074       2.386367       0.000141                                 
 C       1.370482       2.412065       0.000933                                 
 C       2.067428       1.192342       0.000144                                 
 H       1.924301      -0.937208       0.000967                                 
 H      -1.790186       1.173300       0.000962                                 
 H      -0.583208       3.318526      -0.000772                                 
 H       3.149318       1.197759      -0.000767                                 
 N      -0.711160      -1.251627       0.001756                                 
 O      -1.932441      -1.229701       0.002542                                 
 O      -0.067142      -2.289538       0.002483                                 
 N       2.040236       3.590780      -0.024683                                 
 H       1.546357       4.451509       0.132529                                 
 H       3.032458       3.607145       0.132525                                 
Cl       7.262642       2.083214      -3.183860                                 
 C       6.696860       3.457680      -2.163215                                 
 H       7.552207       3.923209      -1.673690                                 
 H       6.192481       4.192703      -2.790367                                 
 C       5.723483       2.938781      -1.103193                                 
 H       4.868148       2.473257      -1.592725                                 
 H       6.227869       2.203764      -0.476057                                 
Cl       5.157697       4.313249      -0.082557                                 
Cl       5.002185       7.429417       2.822835                                 
 C       3.845679       6.073021       3.094128                                 
 H       4.296424       5.138596       2.760027                                 
 H       3.609437       6.003500       4.155877                                 
 C       2.562275       6.331131       2.302552                                 
 H       2.111525       7.265548       2.636654                                 
 H       2.798516       6.400652       1.240802                                 
Cl       1.405768       4.974736       2.573844                                 
Cl       0.216906      -5.695969      -1.500621                                 
 C      -1.083926      -6.222461      -0.368582                                 
 H      -1.898965      -6.672399      -0.935332                                 
 H      -0.681748      -6.953547       0.332641                                 
 C      -1.608808      -5.010824       0.403965                                 
 H      -0.793773      -4.560895       0.970716                                 
 H      -2.010993      -4.279733      -0.297253                                 
Cl      -2.909647      -5.537312       1.536008                                 
Cl       4.752791       7.283111      -3.388366                                 
 C       3.702479       6.804075      -2.003387                                 
 H       3.710163       5.719141      -1.899487                                 
 H       4.078404       7.259693      -1.087414                                 
 C       2.271706       7.281129      -2.259610                                 
 H       2.264018       8.366063      -2.363518                                 
 H       1.895776       6.825511      -3.175592                                 
Cl       1.221381       6.802097      -0.874635                                 
Cl       3.850426      -6.406696      -0.494411                                 
 C       3.204628      -5.096947       0.563189                                 
 H       2.215857      -4.801049       0.212829                                 
 H       3.133547      -5.459474       1.588606                                 
 C       4.144730      -3.891068       0.513225                                 
 H       5.133495      -4.186962       0.863589                                 
 H       4.215808      -3.528550      -0.512191                                 
Cl       3.498933      -2.581319       1.570824                                 
                                                                                
       3.931872       2.331572       2.503234      -0.200000                    
       4.178597       0.809723       3.438105      -0.006000                    
       4.114724       1.023928       4.504858       0.103000                    
       3.409563       0.086988       3.165730       0.103000                    
       5.557923       0.231531       3.116328      -0.006000                    
       5.621796       0.017327       2.049576       0.103000                    
       6.326944       0.954271       3.388699       0.103000                    
       5.804639      -1.290314       4.051204      -0.200000                    
      -4.752884       4.095525       1.977260      -0.200000                    
      -3.804448       4.112840       3.510562      -0.006000                    
      -3.527203       5.138178       3.755023       0.103000                    
      -4.409067       3.697655       4.316773       0.103000                    
      -2.539181       3.270601       3.337062      -0.006000                    
      -2.816434       2.245268       3.092606       0.103000                    
      -1.934565       3.685791       2.530864       0.103000                    
      -1.590747       3.287920       4.870377      -0.200000                    
      -2.222888       4.405465      -2.146270      -0.200000                    
      -2.776882       3.291983      -3.451690      -0.006000                    
      -1.973385       2.600513      -3.705055       0.103000                    
      -3.644641       2.730137      -3.106349       0.103000                    
      -3.157118       4.106627      -4.689492      -0.006000                    
      -3.960615       4.798097      -4.436127       0.103000                    
      -2.289359       4.668471      -5.034832       0.103000                    
      -3.711125       2.993149      -5.994915      -0.200000                    
       5.151854      -1.277319      -2.095660      -0.200000                    
       3.698862      -0.902983      -3.095476      -0.006000                    
       2.891800      -1.587430      -2.834519       0.103000                    
       3.381508       0.122362      -2.906055       0.103000                    
       4.044153      -1.063878      -4.577120      -0.006000                    
       4.851219      -0.379422      -4.838078       0.103000                    
       4.361503      -2.089210      -4.766538       0.103000                    
       2.591154      -0.689538      -5.576931      -0.200000                    
       0.200163      -1.085239       3.053979      -0.200000                    
       0.644755      -2.693080       3.738215      -0.006000                    
       0.639181      -3.440080       2.944552       0.103000                    
       1.640165      -2.638058       4.178734       0.103000                    
      -0.367901      -3.086581       4.815252      -0.006000                    
      -0.362332      -2.339580       5.608906       0.103000                    
      -1.363324      -3.141598       4.374729       0.103000                    
       0.076678      -4.694417       5.499484      -0.200000                    
       3.015098       3.413567      -3.809129      -0.200000                    
       1.343820       3.217758      -4.456718      -0.006000                    
       0.813762       2.464937      -3.873422       0.103000                    
       0.814510       4.168228      -4.390334       0.103000                    
       1.412341       2.773932      -5.919134      -0.006000                    
       1.942398       3.526751      -6.502430       0.103000                    
       1.941658       1.823457      -5.985523       0.103000                    
      -0.258938       2.578122      -6.566724      -0.200000                    
      -7.922102      -3.272888       0.864793      -0.200000                    
      -6.467674      -2.207673       0.894530      -0.006000                    
      -5.574789      -2.815475       1.040425       0.103000                    
      -6.391219      -1.670271      -0.050632       0.103000                    
      -6.593945      -1.204195       2.042323      -0.006000                    
      -7.486833      -0.596400       1.896430       0.103000                    
      -6.670399      -1.741596       2.987485       0.103000                    
      -5.139520      -0.138988       2.072062      -0.200000                    
      -1.333437      -3.647008      -6.538101      -0.200000                    
      -1.043947      -2.660566      -5.056848      -0.006000                    
      -1.803208      -2.893910      -4.310503       0.103000                    
      -0.056875      -2.889053      -4.655042       0.103000                    
      -1.118058      -1.174265      -5.411445      -0.006000                    
      -0.358797      -0.940920      -6.157789       0.103000                    
      -2.105122      -0.945782      -5.813255       0.103000                    
      -0.828563      -0.187823      -3.930183      -0.200000                    
      -7.773179      -5.664536      -2.357817      -0.200000                    
      -6.301739      -4.763825      -2.881670      -0.006000                    
      -6.040848      -5.054089      -3.899340       0.103000                    
      -6.500189      -3.692630      -2.848706       0.103000                    
      -5.139759      -5.095706      -1.943567      -0.006000                    
      -5.400649      -4.805443      -0.925897       0.103000                    
      -4.941308      -6.166902      -1.976532       0.103000                    
      -3.668318      -4.194996      -2.467420      -0.200000                    
      -1.856866       9.276107      -1.062607      -0.200000                    
      -1.791062       8.047750      -2.380866      -0.006000                    
      -1.366463       7.121520      -1.993886       0.103000                    
      -2.798170       7.858715      -2.752278       0.103000                    
      -0.917037       8.570978      -3.522240      -0.006000                    
      -1.341624       9.497213      -3.909227       0.103000                    
       0.090084       8.760008      -3.150824       0.103000                    
      -0.851233       7.342621      -4.840499      -0.200000                    
      -1.823806       7.036250       2.130874      -0.200000                    
      -0.851954       8.422731       2.750664      -0.006000                    
      -0.168880       8.071137       3.523784       0.103000                    
      -0.280503       8.860747       1.932416       0.103000                    
      -1.788613       9.478803       3.340377      -0.006000                    
      -2.471687       9.830398       2.567256       0.103000                    
      -2.360077       9.040792       4.158621       0.103000                    
      -0.816757      10.865292       3.960165      -0.200000                    
      -6.219537       1.341447      -1.361531      -0.200000                    
      -7.463014       2.037523      -0.256930      -0.006000                    
      -7.890962       1.243625       0.355056       0.103000                    
      -6.999449       2.783922       0.388007       0.103000                    
      -8.569021       2.695357      -1.084180      -0.006000                    
      -8.141066       3.489251      -1.696172       0.103000                    
      -9.032578       1.948954      -1.729123       0.103000                    
      -9.812491       3.391433       0.020429      -0.200000                    
      -4.318846       9.683902       0.662602      -0.200000                    
      -5.141110       8.436132      -0.346263      -0.006000                    
      -6.201150       8.405813      -0.094585       0.103000                    
      -5.024791       8.686610      -1.400624       0.103000                    
      -4.513959       7.067258      -0.075685      -0.006000                    
      -3.453918       7.097578      -0.327364       0.103000                    
      -4.630285       6.816785       0.978680       0.103000                    
      -5.336231       5.819494      -1.084546      -0.200000                    
       7.904360       6.943094      -2.111073      -0.200000                    
       8.437696       7.756918      -0.593158      -0.006000                    
       9.516441       7.909805      -0.622279       0.103000                    
       7.936293       8.720337      -0.501656       0.103000                    
       8.079731       6.880221       0.608352      -0.006000                    
       7.000990       6.727333       0.637482       0.103000                    
       8.581139       5.916801       0.516859       0.103000                    
       8.613070       7.694055       2.126266      -0.200000                    
       2.415959       9.617545       1.008213      -0.200000                    
       2.436577      10.862581       2.312217      -0.006000                    
       1.987735      11.784250       1.942047       0.103000                    
       1.869163      10.500624       3.169506       0.103000                    
       3.881479      11.133814       2.735439      -0.006000                    
       4.330320      10.212145       3.105609       0.103000                    
       4.448898      11.495770       1.878158       0.103000                    
       3.902097      12.378851       4.039442      -0.200000                    
       9.991535       5.321959       6.218434      -0.200000                    
       8.693067       4.840583       5.063786      -0.006000                    
       7.954057       4.229480       5.581850       0.103000                    
       8.211535       5.733479       4.665288       0.103000                    
       9.304568       4.035990       3.915277      -0.006000                    
      10.043572       4.647095       3.397205       0.103000                    
       9.786096       3.143095       4.313766       0.103000                    
       8.006094       3.554615       2.760621      -0.200000                    
      -3.519025      -6.349340      -5.414007      -0.200000                    
      -1.903733      -7.133116      -5.579567      -0.006000                    
      -2.016308      -8.215264      -5.514462       0.103000                    
      -1.469153      -6.870171      -6.543926       0.103000                    
      -0.984205      -6.648180      -4.457233      -0.006000                    
      -0.871630      -5.566031      -4.522339       0.103000                    
      -1.418776      -6.911116      -3.492867       0.103000                    
       0.631095      -7.431947      -4.622787      -0.200000                    
      -7.332242      -2.305575      -7.503413      -0.200000                    
      -6.106662      -1.990935      -6.218940      -0.006000                    
      -6.510169      -2.287577      -5.250906       0.103000                    
      -5.204653      -2.565774      -6.428431       0.103000                    
      -5.765977      -0.499740      -6.193505      -0.006000                    
      -5.362462      -0.203101      -7.161542       0.103000                    
      -6.667977       0.075096      -5.984017       0.103000                    
      -4.540382      -0.185104      -4.909027      -0.200000                    
       6.291836      -7.513361      -3.303034      -0.200000                    
       4.763614      -6.869104      -4.010429      -0.006000                    
       4.661763      -7.220495      -5.037127       0.103000                    
       3.915249      -7.217055      -3.421225       0.103000                    
       4.800349      -5.339783      -3.996709      -0.006000                    
       4.902207      -4.988397      -2.970016       0.103000                    
       5.648713      -4.991832      -4.585913       0.103000                    
       3.272125      -4.695525      -4.704104      -0.200000                    
       1.791560       1.824938       9.709233      -0.200000                    
       0.942179       0.789675       8.501864      -0.006000                    
       1.463201      -0.163167       8.409388       0.103000                    
      -0.082034       0.613616       8.830407       0.103000                    
       0.927570       1.496061       7.144942      -0.006000                    
       0.406542       2.448898       7.237434       0.103000                    
       1.951777       1.672124       6.816404       0.103000                    
       0.078181       0.460802       5.937579      -0.200000                    
       4.952072      -4.978493       3.814071      -0.200000                    
       6.018824      -5.153728       5.257071      -0.006000                    
       6.748086      -5.943314       5.076345       0.103000                    
       6.538824      -4.213697       5.441080       0.103000                    
       5.170114      -5.513866       6.477897      -0.006000                    
       4.440851      -4.724281       6.658622       0.103000                    
       4.650115      -6.453901       6.293874       0.103000                    
       6.236866      -5.689102       7.920897      -0.200000                    
      -3.957586      -4.655643       5.088500      -0.200000                    
      -3.129927      -6.091117       5.799371      -0.006000                    
      -3.728954      -6.983326       5.617338       0.103000                    
      -2.149691      -6.211018       5.338158       0.103000                    
      -2.962481      -5.888710       7.306482      -0.006000                    
      -2.363459      -4.996501       7.488506       0.103000                    
      -3.942722      -5.768811       7.767687       0.103000                    
      -2.134826      -7.324185       8.017344      -0.200000                    
      -1.068584       6.688742       5.707999      -0.200000                    
      -0.520009       6.167429       7.344513      -0.006000                    
      -0.812491       6.915385       8.081381       0.103000                    
      -0.979779       5.211425       7.594664       0.103000                    
       1.002400       6.016957       7.348062      -0.006000                    
       1.294873       5.269014       6.611188       0.103000                    
       1.462167       6.972974       7.097915       0.103000                    
       1.550979       5.495653       8.984574      -0.200000                    
       2.477453       8.642229       5.071816      -0.200000                    
       2.370612       9.700839       6.527420      -0.006000                    
       2.551020      10.736069       6.238122       0.103000                    
       1.377407       9.614236       6.967868       0.103000                    
       3.421435       9.267540       7.551322      -0.006000                    
       3.241039       8.232314       7.840613       0.103000                    
       4.414657       9.354146       7.110876       0.103000                    
       3.314599      10.326158       9.006924      -0.200000                    
      11.148829       4.178675       0.867494      -0.200000                    
      10.681702       2.484014       0.466537      -0.006000                    
      11.025318       1.815704       1.255966       0.103000                    
       9.597338       2.416680       0.379574       0.103000                    
      11.325366       2.078047      -0.860586      -0.006000                    
      10.981742       2.746362      -1.650010       0.103000                    
      12.409722       2.145395      -0.773628       0.103000                    
      10.858227       0.383391      -1.261547      -0.200000                    
       1.802042       6.280640      -6.193034      -0.200000                    
       3.071105       6.934408      -7.294374      -0.006000                    
       3.238691       7.987979      -7.071084       0.103000                    
       3.998443       6.380177      -7.150020       0.103000                    
       2.611049       6.788287      -8.746054      -0.006000                    
       2.443458       5.734717      -8.969353       0.103000                    
       1.683714       7.342505      -8.890411       0.103000                    
       3.880111       7.442056      -9.847394      -0.200000                    
       1.734819      11.335766      -4.139653      -0.200000                    
       2.471533      11.301401      -2.494394      -0.006000                    
       1.768996      10.855092      -1.790696       0.103000                    
       3.387043      10.710470      -2.518245       0.103000                    
       2.798071      12.728972      -2.051965      -0.006000                    
       3.500613      13.175281      -2.755655       0.103000                    
       1.882566      13.319903      -2.028105       0.103000                    
       3.534790      12.694607      -0.406697      -0.200000                    
     -10.486628      -0.162118      -0.335759      -0.200000                    
     -10.465222      -0.748689      -2.040586      -0.006000                    
     -11.209992      -1.534836      -2.163964       0.103000                    
     -10.694751       0.078231      -2.712506       0.103000                    
      -9.078692      -1.304062      -2.371414      -0.006000                    
      -8.333925      -0.517912      -2.248022       0.103000                    
      -8.849167      -2.130979      -1.699480       0.103000                    
      -9.057282      -1.890635      -4.076231      -0.200000                    
       4.671473       2.784374       6.741191      -0.200000                    
       5.504546       1.262299       7.231200      -0.006000                    
       4.928807       0.404602       6.883658       0.103000                    
       6.500621       1.234629       6.789594       0.103000                    
       5.621713       1.213197       8.755768      -0.006000                    
       6.197450       2.070908       9.103314       0.103000                    
       4.625638       1.240867       9.197374       0.103000                    
       6.454774      -0.308874       9.245775      -0.200000                    
       4.802088     -10.294188       2.145432      -0.200000                    
       3.509911      -9.081540       2.478172      -0.006000                    
       3.479057      -8.351853       1.669141       0.103000                    
       2.546739      -9.586754       2.549039       0.103000                    
       3.808651      -8.367037       3.797472      -0.006000                    
       3.839510      -9.096725       4.606512       0.103000                    
       4.771830      -7.861829       3.726600       0.103000                    
       2.516486      -7.154385       4.130205      -0.200000                    
       0.865610      -9.276875      -0.330631      -0.200000                    
       2.151107      -9.394969      -1.589343      -0.006000                    
       2.241153      -8.440456      -2.107748       0.103000                    
       3.101305      -9.642916      -1.116474       0.103000                    
       1.781860     -10.487625      -2.594381      -0.006000                    
       1.691810     -11.442136      -2.075985       0.103000                    
       0.831666     -10.239668      -3.067251       0.103000                    
       3.067357     -10.605718      -3.853093      -0.200000                    
      -3.102762     -10.108162       3.163203      -0.200000                    
      -3.343613      -8.993222       1.766852      -0.006000                    
      -3.901700      -8.116065       2.094037       0.103000                    
      -2.373888      -8.682892       1.377911       0.103000                    
      -4.126268      -9.714167       0.667726      -0.006000                    
      -3.568172     -10.591316       0.340548       0.103000                    
      -5.095983     -10.024493       1.056661       0.103000                    
      -4.367110      -8.599219      -0.728619      -0.200000                    
      -3.903027      -0.064446       6.579706      -0.200000                    
      -3.220640      -1.169313       7.830540      -0.006000                    
      -2.388456      -1.730135       7.405252       0.103000                    
      -2.868265      -0.583753       8.679605       0.103000                    
      -4.304827      -2.142315       8.297598      -0.006000                    
      -5.137013      -1.581490       8.722898       0.103000                    
      -4.657197      -2.727866       7.448531       0.103000                    
      -3.622435      -3.247173       9.548429      -0.200000                    
      -9.904503       0.631073       3.067842      -0.200000                    
      -8.718750       0.810416       4.414207      -0.006000                    
      -9.195565       0.541938       5.356809       0.103000                    
      -7.866554       0.154174       4.237989       0.103000                    
      -8.238949       2.261507       4.481227      -0.006000                    
      -7.762134       2.529984       3.538626       0.103000                    
      -9.091132       2.917753       4.657439       0.103000                    
      -7.053191       2.440849       5.827601      -0.200000                    
       9.745271      -1.334238       2.120558      -0.200000                    
       9.962354      -2.680323       0.940815      -0.006000                    
       9.216776      -2.594815       0.150427       0.103000                    
      10.960516      -2.625703       0.506498       0.103000                    
       9.791946      -4.020290       1.659016      -0.006000                    
      10.537518      -4.105794       2.449409       0.103000                    
       8.793782      -4.074907       2.093347       0.103000                    
      10.009030      -5.366376       0.479274      -0.200000                    
       6.365637       1.040683      -6.831756      -0.200000                    
       6.985723       2.652318      -7.350323      -0.006000                    
       7.447860       3.154650      -6.500596       0.103000                    
       7.724669       2.520466      -8.140603       0.103000                    
       5.825459       3.500643      -7.874204      -0.006000                    
       5.363316       2.998305      -8.723916       0.103000                    
       5.086509       3.632484      -7.083921       0.103000                    
       6.445540       5.112268      -8.392769      -0.200000                    
      -5.622186       7.262983       4.043234      -0.200000                    
      -5.717252       7.356575       5.841355      -0.006000                    
      -4.982574       8.073611       6.207442       0.103000                    
      -6.716355       7.676954       6.136421       0.103000                    
      -5.426593       5.978950       6.439750      -0.006000                    
      -6.161267       5.261899       6.073659       0.103000                    
      -4.427499       5.658561       6.144678       0.103000                    
      -5.521664       6.072542       8.237863      -0.200000                    
      -9.292598       1.227695      -6.291611      -0.200000                    
      -9.116615       2.961670      -5.829884      -0.006000                    
      -9.686117       3.581825      -6.522007       0.103000                    
      -9.492026       3.108172      -4.817188       0.103000                    
      -7.640033       3.357526      -5.888006      -0.006000                    
      -7.070525       2.737366      -5.195889       0.103000                    
      -7.264614       3.211020      -6.900705       0.103000                    
      -7.464044       5.091497      -5.426284      -0.200000                    
       3.458290      -6.277932      -8.024838      -0.200000                    