%nprocshared=4                                                                       
%mem=8GB                                                                             
#P pop=chelpg cam-b3lyp/gen scf=qc int=ultrafine charge td(nstates=10)               
                                                                                     
pNA CAM-B3LYP def2-TZVPD Single point - solvent def2-SV(P)                           
                                                                                     
0 1                                                                                  
 C       1.389235       0.000000      -0.000000                                 
 C       0.000000       0.000000      -0.000000                                 
 C      -0.711164       1.193419       0.000000                                 
 C      -0.034074       2.386367       0.000141                                 
 C       1.370482       2.412065       0.000933                                 
 C       2.067428       1.192342       0.000144                                 
 H       1.924301      -0.937208       0.000967                                 
 H      -1.790186       1.173300       0.000962                                 
 H      -0.583208       3.318526      -0.000772                                 
 H       3.149318       1.197759      -0.000767                                 
 N      -0.711160      -1.251627       0.001756                                 
 O      -1.932441      -1.229701       0.002542                                 
 O      -0.067142      -2.289538       0.002483                                 
 N       2.040236       3.590780      -0.024683                                 
 H       1.546357       4.451509       0.132529                                 
 H       3.032458       3.607145       0.132525                                 
Cl      -4.081820      -3.219393      -2.483639                                 
 C      -2.844951      -1.975563      -2.900764                                 
 H      -1.948899      -2.138796      -2.302101                                 
 H      -2.594377      -2.052498      -3.958722                                 
 C      -3.404991      -0.581941      -2.609955                                 
 H      -4.301052      -0.418711      -3.208618                                 
 H      -3.655566      -0.504998      -1.552004                                 
Cl      -2.168132       0.661886      -3.027080                                 
Cl      -3.883600       6.069078      -3.070351                                 
 C      -2.189065       5.739734      -3.590940                                 
 H      -2.162461       4.827078      -4.186169                                 
 H      -1.823646       6.574517      -4.188866                                 
 C      -1.300604       5.569359      -2.357279                                 
 H      -1.327208       6.482015      -1.762050                                 
 H      -1.666024       4.734576      -1.759353                                 
Cl       0.393928       5.240022      -2.877860                                 
Cl       3.782060       5.858406       1.064250                                 
 C       4.885702       6.054456      -0.348006                                 
 H       4.536882       5.431222      -1.171310                                 
 H       4.894129       7.098547      -0.660667                                 
 C       6.301052       5.629889       0.048079                                 
 H       6.649861       6.253120       0.871383                                 
 H       6.292615       4.585795       0.360740                                 
Cl       7.404691       5.825946      -1.364170                                 
Cl      -1.138027      -5.559692      -2.606509                                 
 C      -2.013543      -6.009516      -1.095877                                 
 H      -3.082255      -6.073025      -1.300221                                 
 H      -1.653347      -6.974917      -0.740637                                 
 C      -1.761986      -4.946447      -0.024897                                 
 H      -0.693269      -4.882953       0.179447                                 
 H      -2.122186      -3.981063      -0.380138                                 
Cl      -2.637510      -5.396275       1.485735                                 
Cl      -0.396676      -1.266742       3.943051                                 
 C      -0.228765      -2.894416       3.185816                                 
 H      -1.098648      -3.096140       2.560833                                 
 H       0.672503      -2.919278       2.573416                                 
 C      -0.130298      -3.958442       4.280566                                 
 H       0.739587      -3.756725       4.905541                                 
 H      -1.031564      -3.933587       4.892959                                 
Cl       0.037614      -5.586123       3.523323                                 
                                                                                
      -0.491815       6.090071       1.205225      -0.200000                    
       0.198626       7.724965       1.523449      -0.006000                    
       0.881755       7.994224       0.717974       0.103000                    
      -0.607798       8.456277       1.575949       0.103000                    
       0.958195       7.708094       2.851283      -0.006000                    
       0.275074       7.438839       3.656758       0.103000                    
       1.764618       6.976783       2.798783       0.103000                    
       1.648636       9.342989       3.169507      -0.200000                    
       2.603006      -6.374071      -1.694190      -0.200000                    
       2.733950      -4.740404      -0.942620      -0.006000                    
       3.560970      -4.195890      -1.398093       0.103000                    
       1.805830      -4.191558      -1.101724       0.103000                    
       2.987097      -4.888638       0.558820      -0.006000                    
       2.160080      -5.433159       1.014286       0.103000                    
       3.915210      -5.437493       0.717917       0.103000                    
       3.118039      -3.254965       1.310384      -0.200000                    
      -4.007164       2.919445      -0.881534      -0.200000                    
      -5.295646       2.977207      -2.141421      -0.006000                    
      -5.731361       3.975835      -2.170351       0.103000                    
      -4.864114       2.740498      -3.113904       0.103000                    
      -6.384007       1.956143      -1.804907      -0.006000                    
      -5.948288       0.957502      -1.775977       0.103000                    
      -6.815534       2.192839      -0.832424       0.103000                    
      -7.672488       2.013899      -3.064787      -0.200000                    
      -6.331349      -5.025747       0.484865      -0.200000                    
      -6.623085      -3.247917       0.556986      -0.006000                    
      -6.954787      -2.894012      -0.419075       0.103000                    
      -7.390735      -3.035332       1.300941       0.103000                    
      -5.326763      -2.533783       0.944216      -0.006000                    
      -4.995060      -2.887688       1.920277       0.103000                    
      -4.559115      -2.746362       0.200269       0.103000                    
      -5.618498      -0.755953       1.016337      -0.200000                    
       7.922345       1.789201      -4.218746      -0.200000                    
       6.796851       2.247009      -2.886610      -0.006000                    
       6.825161       3.326890      -2.741709       0.103000                    
       5.783289       1.941428      -3.145851       0.103000                    
       7.224833       1.548296      -1.594720      -0.006000                    
       7.196526       0.468408      -1.739629       0.103000                    
       8.238388       1.853867      -1.335486       0.103000                    
       6.099332       2.006094      -0.262592      -0.200000                    
       2.172266      -0.190027       6.373932      -0.200000                    
       3.223363       0.576951       5.125789      -0.006000                    
       2.770284       1.510618       4.792808       0.103000                    
       4.205084       0.781242       5.552855       0.103000                    
       3.373460      -0.369985       3.933685      -0.006000                    
       3.826529      -1.303656       4.266665       0.103000                    
       2.391740      -0.574283       3.506625       0.103000                    
       4.424556       0.396992       2.685541      -0.200000                    
       2.995823       0.977906      -3.292163      -0.200000                    
       1.447798       1.841099      -3.622776      -0.006000                    
       0.640924       1.367717      -3.063498       0.103000                    
       1.539916       2.883032      -3.316476       0.103000                    
       1.137011       1.775658      -5.119277      -0.006000                    
       1.943895       2.249044      -5.678555       0.103000                    
       1.044893       0.733726      -5.425577       0.103000                    
      -0.411013       2.638851      -5.449889      -0.200000                    
      -1.760733       2.825648       3.239523      -0.200000                    
      -2.578506       1.727450       4.412585      -0.006000                    
      -1.833137       1.107473       4.910595       0.103000                    
      -3.112437       2.320836       5.154715       0.103000                    
      -3.569947       0.832140       3.667036      -0.006000                    
      -4.315311       1.452103       3.169026       0.103000                    
      -3.036012       0.238740       2.924906       0.103000                    
      -4.387718      -0.266066       4.840105      -0.200000                    
      -0.472037       3.973457       7.278241      -0.200000                    
       0.811722       3.526682       6.093673      -0.006000                    
       1.787399       3.583853       6.576089       0.103000                    
       0.640829       2.510588       5.738319       0.103000                    
       0.771626       4.494047       4.909218      -0.006000                    
      -0.204065       4.436887       4.426802       0.103000                    
       0.942504       5.510152       5.264572       0.103000                    
       2.055382       4.047280       3.724643      -0.200000                    
       0.974870      -2.256508      -3.500384      -0.200000                    
       1.862421      -2.531838      -5.045478      -0.006000                    
       1.197195      -2.337033      -5.886574       0.103000                    
       2.719670      -1.860687      -5.096934       0.103000                    
       2.346494      -3.981876      -5.104089      -0.006000                    
       3.011729      -4.176679      -4.262993       0.103000                    
       1.489256      -4.653031      -5.052640       0.103000                    
       3.234054      -4.257204      -6.649184      -0.200000                    
       8.721907      -3.458847      -3.385072      -0.200000                    
       7.189493      -2.508925      -3.401634      -0.006000                    
       7.390626      -1.488657      -3.075237       0.103000                    
       6.782115      -2.493620      -4.412457       0.103000                    
       6.177736      -3.156659      -2.454441      -0.006000                    
       5.976601      -4.176921      -2.780829       0.103000                    
       6.585114      -3.171964      -1.443618       0.103000                    
       4.645322      -2.206738      -2.471003      -0.200000                    
       6.537891      -3.955842       1.227612      -0.200000                    
       6.784469      -2.245369       1.741757      -0.006000                    
       7.003687      -1.631198       0.868424       0.103000                    
       5.880512      -1.877710       2.227112       0.103000                    
       7.955598      -2.171700       2.723261      -0.006000                    
       7.736388      -2.785862       3.596601       0.103000                    
       8.859565      -2.539356       2.237906       0.103000                    
       8.202179      -0.461233       3.237413      -0.200000                    
       4.817446       5.084630      -4.000787      -0.200000                    
       5.033567       5.904064      -5.592224      -0.006000                    
       4.249861       5.580536      -6.277151       0.103000                    
       4.974518       6.983858      -5.456173       0.103000                    
       6.400703       5.537799      -6.172886      -0.006000                    
       7.184400       5.861324      -5.487960       0.103000                    
       6.459740       4.458010      -6.308945       0.103000                    
       6.616813       6.357229      -7.764323      -0.200000                    
       8.020061       4.281662       3.022338      -0.200000                    
       6.951786       3.314105       4.105622      -0.006000                    
       6.299888       3.983963       4.666195       0.103000                    
       6.345996       2.634529       3.506352       0.103000                    
       7.810964       2.506091       5.079928      -0.006000                    
       8.462864       1.836226       4.519347       0.103000                    
       8.416756       3.185660       5.679205       0.103000                    
       6.742691       1.538527       6.163205      -0.200000                    
       7.016111       8.282025       3.843566      -0.200000                    
       5.568016       8.102453       4.902601      -0.006000                    
       5.864401       8.212971       5.945594       0.103000                    
       4.835324       8.868721       4.649697       0.103000                    
       4.950936       6.718477       4.692288      -0.006000                    
       4.654543       6.607949       3.649287       0.103000                    
       5.683618       5.952206       4.945193       0.103000                    
       3.502835       6.538888       5.751323      -0.200000                    
       2.770989       7.635256      -3.641497      -0.200000                    
       1.557927       7.943042      -4.939455      -0.006000                    
       0.556554       7.941051      -4.509099       0.103000                    
       1.754449       8.911883      -5.398426       0.103000                    
       1.658142       6.846531      -6.001492      -0.006000                    
       2.659515       6.848524      -6.431847       0.103000                    
       1.461620       5.877690      -5.542521       0.103000                    
       0.445080       7.154316      -7.299435      -0.200000                    
       0.490076       9.104854      -1.651714      -0.200000                    
      -0.593430      10.541407      -1.536556      -0.006000                    
      -1.450167      10.404437      -2.196255       0.103000                    
      -0.939898      10.654073      -0.509329       0.103000                    
       0.176312      11.795516      -1.954960      -0.006000                    
       1.033049      11.932485      -1.295260       0.103000                    
       0.522777      11.682856      -2.982180       0.103000                    
      -0.907197      13.232077      -1.839808      -0.200000                    
      -3.744445      -3.596320       4.282921      -0.200000                    
      -4.482078      -5.235505       4.141731      -0.006000                    
      -5.453113      -5.241090       4.636686       0.103000                    
      -4.609150      -5.487590       3.089000       0.103000                    
      -3.566196      -6.265706       4.805248      -0.006000                    
      -2.595169      -6.260123       4.310292       0.103000                    
      -3.439130      -6.013630       5.857985       0.103000                    
      -4.303826      -7.904898       4.664064      -0.200000                    
      -7.126187       2.289180       3.652235      -0.200000                    
      -6.879722       3.284039       2.168813      -0.006000                    
      -5.954731       3.852896       2.262080       0.103000                    
      -6.818422       2.630459       1.298736       0.103000                    
      -8.055669       4.247901       2.000039      -0.006000                    
      -8.980657       3.679037       1.906765       0.103000                    
      -8.116970       4.901488       2.870109       0.103000                    
      -7.809210       5.242752       0.516610      -0.200000                    
      -5.410841       6.544419       2.461602      -0.200000                    
      -4.823163       7.173001       4.046011      -0.006000                    
      -4.200309       8.051879       3.880054       0.103000                    
      -5.675807       7.443944       4.668529       0.103000                    
      -4.001323       6.091890       4.750371      -0.006000                    
      -4.624177       5.213012       4.916328       0.103000                    
      -3.148682       5.820954       4.127861       0.103000                    
      -3.413646       6.720478       6.334787      -0.200000                    
       7.846206       8.430876      -4.055770      -0.200000                    
       6.207588       8.585639      -3.319627      -0.006000                    
       5.552107       9.126737      -4.001923       0.103000                    
       5.797904       7.593131      -3.132404       0.103000                    
       6.311989       9.351040      -1.999191      -0.006000                    
       6.967459       8.809946      -1.316900       0.103000                    
       6.721673      10.343548      -2.186413       0.103000                    
       4.673371       9.505803      -1.263047      -0.200000                    
      -3.092216       8.583750      -0.909838      -0.200000                    
      -4.195753       9.141650       0.402356      -0.006000                    
      -3.961486       8.610435       1.324788       0.103000                    
      -4.065166      10.212694       0.556397       0.103000                    
      -5.645405       8.857222       0.004809      -0.006000                    
      -5.879659       9.388433      -0.917632       0.103000                    
      -5.775990       7.786171      -0.149240       0.103000                    
      -6.748939       9.415115       1.316995      -0.200000                    
       1.522333      -8.393046       2.850635      -0.200000                    
       0.271199      -9.320384       1.942053      -0.006000                    
       0.373489      -9.120346       0.875542       0.103000                    
       0.403566     -10.386423       2.126357       0.103000                    
      -1.120911      -8.891621       2.409525      -0.006000                    
      -1.223201      -9.091660       3.476036       0.103000                    
      -1.253278      -7.825582       2.225220       0.103000                    
      -2.372044      -9.818959       1.500944      -0.200000                    
      -2.607642      -1.756407     -10.452870      -0.200000                    
      -2.575907      -1.980162      -8.664031      -0.006000                    
      -3.570179      -1.796561      -8.256961       0.103000                    
      -2.270084      -2.999919      -8.430556       0.103000                    
      -1.582077      -0.995845      -8.044557      -0.006000                    
      -0.587807      -1.179438      -8.451633       0.103000                    
      -1.887902       0.023919      -8.278038       0.103000                    
      -1.550344      -1.219593      -6.255724      -0.200000                    
      -8.153609      -1.315260      -2.787280      -0.200000                    
      -8.420672      -2.561400      -4.062675      -0.006000                    
      -9.328409      -3.121731      -3.839101       0.103000                    
      -8.524040      -2.073448      -5.031756       0.103000                    
      -7.227416      -3.518025      -4.098757      -0.006000                    
      -6.319677      -2.957701      -4.322323       0.103000                    
      -7.124050      -4.005971      -3.129668       0.103000                    
      -7.494481      -4.764159      -5.374144      -0.200000                    
       5.000357      -0.853379      -5.820965      -0.200000                    
       5.580911      -0.238442      -7.413402      -0.006000                    
       5.939990      -1.072486      -8.016214       0.103000                    
       4.761144       0.258543      -7.931995       0.103000                    
       6.720909       0.757125      -7.190735      -0.006000                    
       6.361820       1.591166      -6.587923       0.103000                    
       7.540676       0.260140      -6.672142       0.103000                    
       7.301453       1.372059      -8.783173      -0.200000                    
      -8.140593      -0.123593      -6.673155      -0.200000                    
      -6.957841       1.236992      -6.700958      -0.006000                    
      -6.601883       1.388535      -7.719910       0.103000                    
      -7.441762       2.146723      -6.345837       0.103000                    
      -5.773642       0.901891      -5.792256      -0.006000                    
      -6.129598       0.750342      -4.773313       0.103000                    
      -5.289720      -0.007839      -6.147378       0.103000                    
      -4.590889       2.262477      -5.820060      -0.200000                    
       4.923097      -5.349958       4.152620      -0.200000                    
       3.591017      -6.230791       4.989667      -0.006000                    
       3.322186      -5.700438       5.903122       0.103000                    
       2.723046      -6.286584       4.332812       0.103000                    
       4.056391      -7.645339       5.340124      -0.006000                    
       4.325233      -8.175695       4.426661       0.103000                    
       4.924371      -7.589541       5.996978       0.103000                    
       2.724323      -8.526174       6.177163      -0.200000                    
     -10.153702      -1.701302       3.687513      -0.200000                    
     -10.298462      -0.327495       2.528809      -0.006000                    
     -11.256241      -0.387085       2.012085       0.103000                    
     -10.236862       0.615003       3.072792       0.103000                    
      -9.162709      -0.400795       1.506522      -0.006000                    
      -8.204932      -0.341204       2.023232       0.103000                    
      -9.224323      -1.343289       0.962533       0.103000                    
      -9.307481       0.973009       0.347819      -0.200000                    
      -5.473880      -8.123435      -5.565075      -0.200000                    
      -4.572898      -6.561874      -5.589910      -0.006000                    
      -5.098829      -5.848730      -6.224561       0.103000                    
      -4.504394      -6.165510      -4.576932       0.103000                    
      -3.165352      -6.794038      -6.142359      -0.006000                    
      -2.639424      -7.507175      -5.507700       0.103000                    
      -3.233866      -7.190405      -7.155337       0.103000                    
      -2.264373      -5.232471      -6.167187      -0.200000                    
      -0.524097      -8.667156      -3.487515      -0.200000                    
       0.605627      -9.701428      -4.438818      -0.006000                    
       0.517947     -10.735981      -4.107262       0.103000                    
       0.354133      -9.636340      -5.497340       0.103000                    
       2.041394      -9.218167      -4.225697      -0.006000                    
       2.129074      -8.183615      -4.557254       0.103000                    
       2.292878      -9.283259      -3.167175       0.103000                    
       3.171118     -10.252439      -5.177000      -0.200000                    
      -7.619925      -0.640964       6.918854      -0.200000                    
      -7.147133      -2.207582       7.675851      -0.006000                    
      -6.393369      -2.028139       8.442409       0.103000                    
      -8.023179      -2.671464       8.128946       0.103000                    
      -6.573861      -3.138494       6.605770      -0.006000                    
      -7.327622      -3.317943       5.839205       0.103000                    
      -5.697812      -2.674618       6.152668       0.103000                    
      -6.101057      -4.705114       7.362760      -0.200000                    
       0.361919       7.547020       6.726188      -0.200000                    
       0.221802       7.672527       8.519372      -0.006000                    
       0.197054       6.672871       8.952979       0.103000                    
       1.078639       8.218748       8.913665       0.103000                    
      -1.065841       8.415970       8.879454      -0.006000                    
      -1.041095       9.415631       8.445854       0.103000                    
      -1.922680       7.869755       8.485168       0.103000                    
      -1.205967       8.541473      10.672637      -0.200000                    
      -3.428946      -2.876017       9.600742      -0.200000                    
      -2.635509      -1.266589       9.424490      -0.006000                    
      -3.349572      -0.480429       9.669421       0.103000                    
      -1.782197      -1.206008      10.099866       0.103000                    
      -2.157259      -1.089073       7.982221      -0.006000                    
      -1.443205      -1.875237       7.737289       0.103000                    
      -3.010566      -1.149668       7.306845       0.103000                    
      -1.363829       0.520345       7.805961      -0.200000                    
      13.612453      -4.058078      -1.385158      -0.200000                    
      12.465463      -2.885467      -0.636676      -0.006000                    
      12.437696      -3.041859       0.441610       0.103000                    
      12.795604      -1.868514      -0.848152       0.103000                    
      11.066668      -3.098292      -1.218458      -0.006000                    
      11.094438      -2.941906      -2.296751       0.103000                    
      10.736526      -4.115245      -1.006982       0.103000                    
       9.919676      -1.925681      -0.469977      -0.200000                    
       3.831108      11.887573       4.161512      -0.200000                    
       5.159368      11.538321       2.993339      -0.006000                    
       5.220811      10.463478       2.823364       0.103000                    
       4.956141      12.044572       2.049764       0.103000                    
       6.486514      12.040273       3.565227      -0.006000                    
       6.425074      13.115108       3.735208       0.103000                    
       6.689732      11.534019       4.508816       0.103000                    
       7.814777      11.691014       2.397061      -0.200000                    
       6.107532     -10.229673      -2.292746      -0.200000                    
       5.363988      -8.612793      -2.582058      -0.006000                    
       4.278532      -8.697428      -2.531216       0.103000                    
       5.710018      -7.912274      -1.822163       0.103000                    
       5.771058      -8.104684      -3.966446      -0.006000                    
       6.856513      -8.020049      -4.017289       0.103000                    
       5.425027      -8.805202      -4.726340       0.103000                    
       5.027504      -6.487805      -4.255758      -0.200000                    
      -7.407207       8.124962      -3.308155      -0.200000                    
      -8.560065       6.974918      -4.082263      -0.006000                    
      -9.256164       6.598331      -3.332902       0.103000                    
      -9.114251       7.488981      -4.867478       0.103000                    
      -7.783148       5.805203      -4.689280      -0.006000                    
      -7.087049       6.181789      -5.438625       0.103000                    
      -7.228962       5.291141      -3.904050       0.103000                    
      -8.936007       4.655160      -5.463372      -0.200000                    
       0.359031      14.409362       4.734416      -0.200000                    