%nprocshared=4                                                                       
%mem=8GB                                                                             
#P pop=chelpg cam-b3lyp/gen scf=qc int=ultrafine charge td(nstates=10)               
                                                                                     
pNA CAM-B3LYP def2-TZVPD Single point - solvent def2-SV(P)                           
                                                                                     
0 1                                                                                  
 C       1.389235       0.000000      -0.000000                                 
 C       0.000000       0.000000      -0.000000                                 
 C      -0.711164       1.193419       0.000000                                 
 C      -0.034074       2.386367       0.000141                                 
 C       1.370482       2.412065       0.000933                                 
 C       2.067428       1.192342       0.000144                                 
 H       1.924301      -0.937208       0.000967                                 
 H      -1.790186       1.173300       0.000962                                 
 H      -0.583208       3.318526      -0.000772                                 
 H       3.149318       1.197759      -0.000767                                 
 N      -0.711160      -1.251627       0.001756                                 
 O      -1.932441      -1.229701       0.002542                                 
 O      -0.067142      -2.289538       0.002483                                 
 N       2.040236       3.590780      -0.024683                                 
 H       1.546357       4.451509       0.132529                                 
 H       3.032458       3.607145       0.132525                                 
Cl       5.386210       2.848818       1.094995                                 
 C       4.596719       2.099504       2.532398                                 
 H       4.291917       2.880915       3.228393                                 
 H       3.720683       1.535104       2.213078                                 
 C       5.584735       1.158348       3.224075                                 
 H       5.889536       0.376937       2.528081                                 
 H       6.460767       1.722755       3.543390                                 
Cl       4.795239       0.409041       4.661474                                 
Cl       0.226980       5.271354       2.025257                                 
 C      -1.401868       5.538397       2.750773                                 
 H      -1.554145       6.604252       2.920094                                 
 H      -2.168092       5.165063       2.071480                                 
 C      -1.495105       4.792514       4.083191                                 
 H      -1.342820       3.726664       3.913869                                 
 H      -0.728881       5.165847       4.762484                                 
Cl      -3.123959       5.059569       4.808712                                 
Cl      -3.403547       3.983976      -2.002502                                 
 C      -2.340670       5.424015      -1.784686                                 
 H      -2.934792       6.332546      -1.882471                                 
 H      -1.884330       5.392766      -0.795411                                 
 C      -1.244546       5.414848      -2.851832                                 
 H      -0.650428       4.506324      -2.754051                                 
 H      -1.700886       5.446096      -3.841107                                 
Cl      -0.181670       6.854887      -2.634016                                 
Cl      -2.204117       1.763276      -4.689086                                 
 C      -2.994092       0.181779      -4.334510                                 
 H      -3.983318       0.158932      -4.791512                                 
 H      -2.387041      -0.627073      -4.740990                                 
 C      -3.128160       0.006798      -2.820643                                 
 H      -2.138936       0.029651      -2.363632                                 
 H      -3.735213       0.815655      -2.414155                                 
Cl      -3.918137      -1.574695      -2.466058                                 
Cl      -3.148722       2.146005       2.087471                                 
 C      -3.945918       1.249934       3.433713                                 
 H      -4.708889       1.881219       3.889045                                 
 H      -4.409211       0.343946       3.043267                                 
 C      -2.900686       0.874802       4.485913                                 
 H      -2.137716       0.243521       4.030589                                 
 H      -2.437384       1.780794       4.876357                                 
Cl      -3.697882      -0.021270       5.832154                                 
                                                                                
       3.771915       6.191224       0.994525      -0.200000                    
       3.156352       7.608822       1.923237      -0.006000                    
       2.676449       7.263090       2.838722       0.103000                    
       3.987589       8.267360       2.174826       0.103000                    
       2.140159       8.373310       1.072790      -0.006000                    
       2.620063       8.719043       0.157305       0.103000                    
       1.308922       7.714773       0.821201       0.103000                    
       1.524597       9.790909       2.001502      -0.200000                    
       0.647777       0.453671       3.740332      -0.200000                    
       1.181106      -1.046698       4.586178      -0.006000                    
       2.178912      -0.896606       4.998241       0.103000                    
       0.485259      -1.276078       5.393084       0.103000                    
       1.209952      -2.209472       3.592443      -0.006000                    
       0.212140      -2.359552       3.180384       0.103000                    
       1.905797      -1.980088       2.785546       0.103000                    
       1.743280      -3.709837       4.438298      -0.200000                    
      -0.985829      -2.899510      -4.542188      -0.200000                    
       0.086596      -1.570827      -3.963075      -0.006000                    
       0.138982      -0.789360      -4.721018       0.103000                    
      -0.315966      -1.155088      -3.039470       0.103000                    
       1.489215      -2.123914      -3.703894      -0.006000                    
       1.436839      -2.905377      -2.945953       0.103000                    
       1.891778      -2.539654      -4.627500       0.103000                    
       2.561640      -0.795231      -3.124781      -0.200000                    
       7.448430       4.275848      -4.139943      -0.200000                    
       5.736395       4.078804      -3.609780      -0.006000                    
       5.571830       4.646153      -2.693825       0.103000                    
       5.069652       4.446276      -4.389780       0.103000                    
       5.450001       2.598567      -3.350520      -0.006000                    
       5.614564       2.031222      -4.266465       0.103000                    
       6.116744       2.231095      -2.570520       0.103000                    
       3.737957       2.401518      -2.820356      -0.200000                    
      -7.264190      -3.481832      -0.191045      -0.200000                    
      -7.204310      -1.891224       0.655873      -0.006000                    
      -8.174894      -1.401413       0.578592       0.103000                    
      -6.958575      -2.047579       1.706166       0.103000                    
      -6.135406      -1.008773       0.008525      -0.006000                    
      -5.164822      -1.498585       0.085806       0.103000                    
      -6.381135      -0.852426      -1.041763       0.103000                    
      -6.075526       0.581834       0.855444      -0.200000                    
      -2.066983      -3.304124       2.510008      -0.200000                    
      -3.853874      -3.295903       2.269340      -0.006000                    
      -4.211217      -2.266824       2.233795       0.103000                    
      -4.096913      -3.797692       1.332856       0.103000                    
      -4.528131      -4.029468       3.430220      -0.006000                    
      -4.170793      -5.058534       3.465770       0.103000                    
      -4.285098      -3.527667       4.366708       0.103000                    
      -6.315023      -4.021244       3.189562      -0.200000                    
       5.498026      -0.958393      -0.673788      -0.200000                    
       6.741691      -1.030918      -1.977210      -0.006000                    
       7.360318      -0.134368      -1.939765       0.103000                    
       7.368149      -1.911169      -1.833433       0.103000                    
       6.049139      -1.115450      -3.338683      -0.006000                    
       5.430504      -2.012004      -3.376127       0.103000                    
       5.422682      -0.235199      -3.482460       0.103000                    
       7.292796      -1.187980      -4.642104      -0.200000                    
       0.846244      -5.898143      -5.091228      -0.200000                    
       0.727975      -6.019561      -3.296188      -0.006000                    
       1.465320      -6.734214      -2.930758       0.103000                    
       0.917768      -5.042345      -2.852400       0.103000                    
      -0.674599      -6.491445      -2.908324      -0.006000                    
      -1.411947      -5.776788      -3.273767       0.103000                    
      -0.864405      -7.468657      -3.352114       0.103000                    
      -0.792873      -6.612855      -1.113288      -0.200000                    
       4.170246      -5.044787       1.242998      -0.200000                    
       5.495749      -4.492533       2.333397      -0.006000                    
       5.431509      -5.024874       3.282290       0.103000                    
       6.459293      -4.696514       1.866590       0.103000                    
       5.358365      -2.989351       2.582293      -0.006000                    
       5.422614      -2.457005       1.633398       0.103000                    
       4.394821      -2.785370       3.049100       0.103000                    
       6.683878      -2.437093       3.672691      -0.200000                    
       3.636438       7.374068      -2.352851      -0.200000                    
       4.463709       8.800950      -1.624527      -0.006000                    
       3.748726       9.615262      -1.507707       0.103000                    
       4.867192       8.528683      -0.649332       0.103000                    
       5.603785       9.251464      -2.539746      -0.006000                    
       6.318769       8.437146      -2.656574       0.103000                    
       5.200304       9.523726      -3.514950       0.103000                    
       6.431051      10.678353      -1.811427      -0.200000                    
       7.970978      -6.189291      -1.176653      -0.200000                    
       6.244969      -5.985944      -1.656598      -0.006000                    
       6.109763      -6.329890      -2.681957       0.103000                    
       5.611007      -6.570839      -0.990341       0.103000                    
       5.859418      -4.508661      -1.559856      -0.006000                    
       5.994628      -4.164702      -0.534503       0.103000                    
       6.493381      -3.923765      -2.226113       0.103000                    
       4.133419      -4.305308      -2.039802      -0.200000                    
      -4.381114      -6.706902      -4.848271      -0.200000                    
      -4.433538      -6.967555      -3.064977      -0.006000                    
      -5.208797      -7.695625      -2.826589       0.103000                    
      -3.467783      -7.339830      -2.723404       0.103000                    
      -4.745587      -5.643530      -2.365045      -0.006000                    
      -3.970329      -4.915460      -2.603433       0.103000                    
      -5.711342      -5.271255      -2.706618       0.103000                    
      -4.798006      -5.904191      -0.581746      -0.200000                    
      -6.781445       4.074439       2.762349      -0.200000                    
      -5.576429       5.002380       1.793978      -0.006000                    
      -4.633926       5.053636       2.338974       0.103000                    
      -5.416920       4.503963       0.837906       0.103000                    
      -6.100842       6.418485       1.548974      -0.006000                    
      -7.043358       6.367232       1.003976       0.103000                    
      -6.260351       6.916902       2.505046       0.103000                    
      -4.895832       7.346438       0.580608      -0.200000                    
       9.901246       4.774115      -0.660618      -0.200000                    
       9.182805       3.146019      -0.370618      -0.006000                    
       8.111792       3.247169      -0.195588       0.103000                    
       9.350595       2.514004      -1.242581       0.103000                    
       9.841251       2.508967       0.854534      -0.006000                    
      10.912264       2.407822       0.679513       0.103000                    
       9.673460       3.140987       1.726506       0.103000                    
       9.122810       0.880876       1.144543      -0.200000                    
      10.181232       9.296446       0.695931      -0.200000                    
       8.836035       8.101238       0.582901      -0.006000                    
       7.887012       8.629477       0.491917       0.103000                    
       8.984879       7.467911      -0.291541       0.103000                    
       8.817418       7.233778       1.842883      -0.006000                    
       9.766440       6.705539       1.933867       0.103000                    
       8.668559       7.867108       2.717322       0.103000                    
       7.472221       6.038566       1.729844      -0.200000                    
      -1.655259       8.737230       0.249901      -0.200000                    
      -2.698085      10.001065       1.002355      -0.006000                    
      -3.256383       9.565727       1.831069       0.103000                    
      -2.074013      10.814624       1.371992       0.103000                    
      -3.676075      10.543180      -0.041685      -0.006000                    
      -3.117777      10.978518      -0.870400       0.103000                    
      -4.300152       9.729630      -0.411328       0.103000                    
      -4.718892      11.807019       0.710767      -0.200000                    
       0.473364       6.419650      -6.463074      -0.200000                    
       1.606837       7.519692      -5.593628      -0.006000                    
       1.741588       7.168317      -4.570738       0.103000                    
       2.569342       7.527995      -6.104954       0.103000                    
       1.028363       8.935806      -5.573740      -0.006000                    
       0.893621       9.287186      -6.596631       0.103000                    
       0.065857       8.927502      -5.062413       0.103000                    
       2.161837      10.035848      -4.704294      -0.200000                    
       3.388390       5.267938       5.527131      -0.200000                    
       2.044474       5.651253       6.666334      -0.006000                    
       2.246498       6.601593       7.160308       0.103000                    
       1.107807       5.720829       6.113383       0.103000                    
       1.934968       4.544364       7.716653      -0.006000                    
       1.732945       3.594024       7.222678       0.103000                    
       2.871636       4.474787       8.269602       0.103000                    
       0.591048       4.927686       8.855850      -0.200000                    
      -3.096580      -6.944827       5.166817      -0.200000                    
      -2.053832      -7.450812       3.785663      -0.006000                    
      -2.058998      -6.672989       3.022176       0.103000                    
      -1.034425      -7.607544       4.138084       0.103000                    
      -2.592760      -8.752784       3.190076      -0.006000                    
      -2.587604      -9.530606       3.953574       0.103000                    
      -3.612182      -8.596044       2.837662       0.103000                    
      -1.550027      -9.258761       1.808928      -0.200000                    
       1.980394      -7.757485       2.446689      -0.200000                    
       2.444621      -8.295347       0.789568      -0.006000                    
       1.799138      -9.117179       0.479912       0.103000                    
       2.334246      -7.464127       0.093279       0.103000                    
       3.900455      -8.765316       0.795140      -0.006000                    
       4.545934      -7.943497       1.104800       0.103000                    
       4.010830      -9.596536       1.491428       0.103000                    
       4.364673      -9.303182      -0.861981      -0.200000                    
       4.230419      -0.245163      -6.678185      -0.200000                    
       2.980489       1.003648      -6.318964      -0.006000                    
       2.172251       0.553789      -5.742489       0.103000                    
       3.430079       1.813230      -5.744196       0.103000                    
       2.422700       1.558930      -7.630794      -0.006000                    
       3.230937       2.008794      -8.207259       0.103000                    
       1.973109       0.749352      -8.205551       0.103000                    
       1.172778       2.807750      -7.271565      -0.200000                    
      -5.985725       5.014182      -5.642415      -0.200000                    
      -5.866592       6.441710      -4.547470      -0.006000                    
      -6.615898       7.180780      -4.830814       0.103000                    
      -6.038261       6.126005      -3.518493       0.103000                    
      -4.471975       7.059421      -4.664856      -0.006000                    
      -3.722673       6.320359      -4.381517       0.103000                    
      -4.300306       7.375125      -5.693833       0.103000                    
      -4.352841       8.486948      -3.569912      -0.200000                    
       7.225917       3.297828       8.830927      -0.200000                    
       7.231245       4.316695       7.343349      -0.006000                    
       6.332851       4.933445       7.321869       0.103000                    
       8.112559       4.958002       7.345078       0.103000                    
       7.259785       3.415028       6.107812      -0.006000                    
       8.158179       2.798278       6.129293       0.103000                    
       6.378471       2.773722       6.106083       0.103000                    
       7.265108       4.433903       4.620231      -0.200000                    
      -3.002207      -2.548347       7.815189      -0.200000                    
      -1.707451      -3.637347       7.191740      -0.006000                    
      -1.917560      -3.894840       6.153717       0.103000                    
      -0.744866      -3.129747       7.252728       0.103000                    
      -1.664780      -4.913373       8.034517      -0.006000                    
      -1.454671      -4.655881       9.072540       0.103000                    
      -2.627363      -5.420978       7.973520       0.103000                    
      -0.370023      -6.002378       7.411060      -0.200000                    
       1.770627      -3.708247      -9.227365      -0.200000                    
       2.270880      -3.572575      -7.500464      -0.006000                    
       2.355476      -2.520648      -7.228004       0.103000                    
       1.525415      -4.053361      -6.867149       0.103000                    
       3.623880      -4.259540      -7.306038      -0.006000                    
       3.539284      -5.311467      -7.578500       0.103000                    
       4.369337      -3.778759      -7.939354       0.103000                    
       4.124133      -4.123868      -5.579140      -0.200000                    
      -7.980824       3.651291      -1.851827      -0.200000                    
      -9.169749       4.959878      -1.498337      -0.006000                    
      -8.645510       5.910270      -1.398846       0.103000                    
      -9.890687       5.025920      -2.313108       0.103000                    
      -9.903177       4.643676      -0.193575      -0.006000                    
     -10.427422       3.693292      -0.293071       0.103000                    
      -9.182240       4.577639       0.621205       0.103000                    
     -11.092106       5.952271       0.159911      -0.200000                    
      -4.572123      -2.024449      -6.518834      -0.200000                    
      -6.364517      -2.121950      -6.688114      -0.006000                    
      -6.818298      -2.216042      -5.701602       0.103000                    
      -6.733563      -1.218467      -7.173377       0.103000                    
      -6.731056      -3.341513      -7.535818      -0.006000                    
      -6.277276      -3.247421      -8.522328       0.103000                    
      -6.362010      -4.244996      -7.050555       0.103000                    
      -8.523451      -3.439014      -7.705098      -0.200000                    
       2.552998       1.342845       7.084725      -0.200000                    
       3.891407       1.380315       8.292289      -0.006000                    
       4.795063       0.964921       7.846451       0.103000                    
       4.076890       2.410040       8.597624       0.103000                    
       3.498329       0.549335       9.515118      -0.006000                    
       2.594673       0.964734       9.960964       0.103000                    
       3.312859      -0.480389       9.209794       0.103000                    
       4.836747       0.586810      10.722679      -0.200000                    
       9.696688      -2.991004      -0.861419      -0.200000                    
      10.512417      -1.588252      -1.647459      -0.006000                    
       9.912086      -0.690287      -1.501924       0.103000                    
      11.496646      -1.443725      -1.202104       0.103000                    
      10.665947      -1.861182      -3.144900      -0.006000                    
      11.266276      -2.759147      -3.290434       0.103000                    
       9.681718      -2.005709      -3.590255       0.103000                    
      11.481679      -0.458438      -3.930935      -0.200000                    
      -0.972018       2.117340       7.157334      -0.200000                    
      -1.812093       1.317576       8.537742      -0.006000                    
      -2.867760       1.191944       8.297394       0.103000                    
      -1.362339       0.341815       8.721005       0.103000                    
      -1.674548       2.185235       9.790195      -0.006000                    
      -0.618880       2.310867      10.030542       0.103000                    
      -2.124305       3.160983       9.606936       0.103000                    
      -2.514631       1.385466      11.170603      -0.200000                    
       6.772654      13.878364       3.322339      -0.200000                    
       5.463793      13.213861       2.275353      -0.006000                    
       4.501837      13.339240       2.772221       0.103000                    
       5.453748      13.745857       1.324144       0.103000                    
       5.717408      11.726209       2.024349      -0.006000                    
       6.679363      11.600835       1.527490       0.103000                    
       5.727455      11.194212       2.975558       0.103000                    
       4.408547      11.061706       0.977363      -0.200000                    
       3.406959       9.191309       5.338855      -0.200000                    
       2.548151      10.774101       5.428739      -0.006000                    
       1.831520      10.845867       4.610677       0.103000                    
       2.022190      10.848841       6.380432       0.103000                    
       3.564021      11.912498       5.317366      -0.006000                    
       4.280647      11.840744       6.135431       0.103000                    
       4.089979      11.837767       4.365667       0.103000                    
       2.705209      13.495299       5.407246      -0.200000                    
       5.444858       7.180660      -5.843745      -0.200000                    
       6.392478       6.106199      -6.938481      -0.006000                    
       7.435747       6.421605      -6.943764       0.103000                    
       6.325538       5.077227      -6.585343       0.103000                    
       5.825994       6.195890      -8.356724      -0.006000                    
       4.782720       5.880472      -8.351436       0.103000                    
       5.892930       7.224845      -8.709865       0.103000                    
       6.773613       5.121424      -9.451468      -0.200000                    
       9.432914       0.441247       5.556740      -0.200000                    
       8.989416      -0.956783       6.605451      -0.006000                    
       9.090495      -1.882551       6.039150       0.103000                    
       9.650944      -0.986122       7.471186       0.103000                    
       7.541789      -0.802634       7.075522      -0.006000                    
       7.440708       0.123139       7.641833       0.103000                    
       6.880270      -0.773291       6.209786       0.103000                    
       7.098300      -2.200660       8.124232      -0.200000                    
       5.399030      -5.248387       6.824204      -0.200000                    
       4.419847      -4.404751       8.081344      -0.006000                    
       4.648703      -4.822761       9.061571       0.103000                    
       4.658372      -3.341254       8.074913       0.103000                    
       2.931812      -4.594876       7.781261      -0.006000                    
       2.702965      -4.176862       6.801033       0.103000                    
       2.693291      -5.658361       7.787686       0.103000                    
       1.952629      -3.751241       9.038402      -0.200000                    
      -0.408711      -0.896982      -7.598445      -0.200000                    
      -1.671179      -1.472808      -8.749784      -0.006000                    
      -1.192438      -1.885199      -9.637858       0.103000                    
      -2.275235      -2.243572      -8.271308       0.103000                    
      -2.567302      -0.300050      -9.152267      -0.006000                    
      -3.046041       0.112336      -8.264203       0.103000                    
      -1.963246       0.470714      -9.630744       0.103000                    
      -3.829760      -0.875871     -10.303610      -0.200000                    
       8.935922       7.832857       7.707881      -0.200000                    
       8.579688       8.430279       6.044418      -0.006000                    
       8.910798       9.464470       5.950843       0.103000                    
       9.105371       7.812928       5.316036       0.103000                    
       7.073864       8.352189       5.786117      -0.006000                    
       6.742754       7.318003       5.879700       0.103000                    
       6.548181       8.969540       6.514499       0.103000                    
       6.717630       8.949612       4.122653      -0.200000                    
       1.927257      13.151273      -2.356796      -0.200000                    
       0.578422      12.857960      -1.196833      -0.006000                    
       0.158096      11.867488      -1.370899       0.103000                    
       0.956816      12.918136      -0.176463       0.103000                    
      -0.508192      13.915424      -1.400370      -0.006000                    
      -0.087865      14.905894      -1.226303       0.103000                    
      -0.886586      13.855248      -2.420740       0.103000                    
      -1.857026      13.622111      -0.240407      -0.200000                    
      -8.892050      -7.657346      -0.148540      -0.200000                    