%nprocshared=4                                                                       
%mem=8GB                                                                             
#P pop=chelpg cam-b3lyp/gen scf=qc int=ultrafine charge td(nstates=10)               
                                                                                     
pNA CAM-B3LYP def2-TZVPD Single point - solvent def2-SV(P)                           
                                                                                     
0 1                                                                                  
 C       1.389235       0.000000      -0.000000                                 
 C       0.000000       0.000000      -0.000000                                 
 C      -0.711164       1.193419       0.000000                                 
 C      -0.034074       2.386367       0.000141                                 
 C       1.370482       2.412065       0.000933                                 
 C       2.067428       1.192342       0.000144                                 
 H       1.924301      -0.937208       0.000967                                 
 H      -1.790186       1.173300       0.000962                                 
 H      -0.583208       3.318526      -0.000772                                 
 H       3.149318       1.197759      -0.000767                                 
 N      -0.711160      -1.251627       0.001756                                 
 O      -1.932441      -1.229701       0.002542                                 
 O      -0.067142      -2.289538       0.002483                                 
 N       2.040236       3.590780      -0.024683                                 
 H       1.546357       4.451509       0.132529                                 
 H       3.032458       3.607145       0.132525                                 
Cl       2.626953      -3.613629       0.977641                                 
 C       4.132141      -2.857829       0.334169                                 
 H       4.819285      -3.637847       0.006581                                 
 H       3.883754      -2.214248      -0.509669                                 
 C       4.794168      -2.024299       1.432954                                 
 H       4.107016      -1.244278       1.760546                                 
 H       5.042546      -2.667877       2.276796                                 
Cl       6.299348      -1.268497       0.789486                                 
Cl       7.397517       5.392836       3.010865                                 
 C       6.860254       4.743096       1.417107                                 
 H       6.333231       5.521844       0.865973                                 
 H       7.729337       4.417854       0.845437                                 
 C       5.923570       3.554394       1.640590                                 
 H       6.450598       2.775653       2.191729                                 
 H       5.054495       3.879638       2.212272                                 
Cl       5.386307       2.904654       0.046831                                 
Cl       1.913946      -3.648741      -3.956974                                 
 C       0.604932      -4.298662      -2.901060                                 
 H       0.396301      -3.588019      -2.101439                                 
 H      -0.296556      -4.454215      -3.493559                                 
 C       1.052400      -5.630250      -2.295214                                 
 H       1.261018      -6.340899      -3.094834                                 
 H       1.953875      -5.474704      -1.702714                                 
Cl      -0.256627      -6.280177      -1.239299                                 
Cl       1.827217       2.943716       3.876938                                 
 C       0.753913       1.621973       3.283714                                 
 H      -0.192749       2.045311       2.948196                                 
 H       1.236489       1.106880       2.453237                                 
 C       0.494202       0.628352       4.417586                                 
 H       1.440861       0.205020       4.753096                                 
 H       0.011635       1.143443       5.248058                                 
Cl      -0.579097      -0.693387       3.824350                                 
Cl      -5.036701      -2.589916      -0.167765                                 
 C      -4.325114      -3.134145       1.396960                                 
 H      -3.683625      -2.349130       1.797207                                 
 H      -5.125257      -3.346537       2.105915                                 
 C      -3.497984      -4.400548       1.167935                                 
 H      -4.139474      -5.185563       0.767688                                 
 H      -2.697845      -4.188150       0.458973                                 
Cl      -2.786392      -4.944773       2.732648                                 
                                                                                
      -4.823819       5.309433      -0.516680      -0.200000                    
      -3.545766       5.015573      -1.754063      -0.006000                    
      -2.833505       4.283205      -1.374258       0.103000                    
      -4.004274       4.636981      -2.667515       0.103000                    
      -2.816774       6.326332      -2.055434      -0.006000                    
      -3.529035       7.058700      -2.435240       0.103000                    
      -2.358266       6.704923      -1.141982       0.103000                    
      -1.538716       6.032475      -3.292830      -0.200000                    
      -4.853111       1.858180      -0.169458      -0.200000                    
      -4.649634       0.904648      -1.686097      -0.006000                    
      -3.952714       0.085402      -1.509754       0.103000                    
      -5.614231       0.501444      -1.994235       0.103000                    
      -4.100883       1.811751      -2.788986      -0.006000                    
      -4.797811       2.630995      -2.965340       0.103000                    
      -3.136289       2.214960      -2.480854       0.103000                    
      -3.897410       0.858211      -4.305628      -0.200000                    
      -1.035354       5.284815       2.068096      -0.200000                    
      -2.071910       5.991141       3.363287      -0.006000                    
      -1.996599       7.078138       3.336909       0.103000                    
      -3.108183       5.694492       3.201820       0.103000                    
      -1.602536       5.480973       4.727019      -0.006000                    
      -1.677852       4.393967       4.753394       0.103000                    
      -0.566271       5.777619       4.888475       0.103000                    
      -2.639096       6.187290       6.022207      -0.200000                    
       1.414823       1.191534      -5.080015      -0.200000                    
       3.140620       1.388634      -4.596625      -0.006000                    
       3.772716       1.355877      -5.483932       0.103000                    
       3.270057       2.346627      -4.093202       0.103000                    
       3.536674       0.256527      -3.646976      -0.006000                    
       2.904573       0.289276      -2.759674       0.103000                    
       3.407237      -0.701467      -4.150400       0.103000                    
       5.262480       0.453624      -3.163591      -0.200000                    
      -5.881492      -0.616530       3.736807      -0.200000                    
      -4.934376       0.628987       2.840967      -0.006000                    
      -4.492463       0.179667       1.951719       0.103000                    
      -5.594069       1.445059       2.546375       0.103000                    
      -3.824210       1.171647       3.742829      -0.006000                    
      -4.266120       1.620961       4.632085       0.103000                    
      -3.164517       0.355575       4.037421       0.103000                    
      -2.877102       2.417166       2.846994      -0.200000                    
      -1.079079      -1.052920      -3.532735      -0.200000                    
      -1.680817      -2.027499      -4.925225      -0.006000                    
      -1.100897      -2.947048      -5.003040       0.103000                    
      -2.731587      -2.272326      -4.770558       0.103000                    
      -1.530588      -1.219768      -6.215732      -0.006000                    
      -2.110515      -0.300221      -6.137928       0.103000                    
      -0.479817      -0.974941      -6.370399       0.103000                    
      -2.132330      -2.194355      -7.608225      -0.200000                    
       0.960182       9.317369       3.591606      -0.200000                    
       2.518556       8.415904       3.493342      -0.006000                    
       2.880921       8.427170       2.465477       0.103000                    
       3.254157       8.889489       4.143361       0.103000                    
       2.299930       6.969317       3.940550      -0.006000                    
       1.937565       6.958050       4.968414       0.103000                    
       1.564330       6.495732       3.290531       0.103000                    
       3.858301       6.067857       3.842279      -0.200000                    
       3.377979      10.976117      -1.189527      -0.200000                    
       2.168564       9.803020      -1.831425      -0.006000                    
       1.526495      10.302932      -2.556552       0.103000                    
       2.686486       8.974649      -2.314628       0.103000                    
       1.315801       9.268110      -0.679439      -0.006000                    
       1.957870       8.768198       0.045687       0.103000                    
       0.797873      10.096477      -0.196224       0.103000                    
       0.106381       8.095009      -1.321325      -0.200000                    
       0.338863      -1.836423       6.900491      -0.200000                    
       1.602408      -2.791424       6.038896      -0.006000                    
       2.197579      -2.126145       5.413476       0.103000                    
       2.248822      -3.280145       6.767753       0.103000                    
       0.931696      -3.850386       5.161932      -0.006000                    
       0.336525      -4.515666       5.787351       0.103000                    
       0.285278      -3.361673       4.433070       0.103000                    
       2.195250      -4.805390       4.300331      -0.200000                    
       6.023409       4.800394      -6.122123      -0.200000                    
       6.941352       5.450173      -4.712808      -0.006000                    
       7.930698       4.993922      -4.681707       0.103000                    
       7.042323       6.530904      -4.811720       0.103000                    
       6.189559       5.124930      -3.420764      -0.006000                    
       5.200213       5.581182      -3.451864       0.103000                    
       6.088584       4.044205      -3.321859       0.103000                    
       7.107495       5.774724      -2.011446      -0.200000                    
      -3.941976      -4.402935      -4.789568      -0.200000                    
      -3.415465      -5.480948      -3.443592      -0.006000                    
      -2.732194      -6.237327      -3.829609       0.103000                    
      -2.909552      -4.889383      -2.680665       0.103000                    
      -4.638568      -6.164949      -2.829931      -0.006000                    
      -5.321827      -5.408565      -2.443915       0.103000                    
      -5.144469      -6.756508      -3.592858       0.103000                    
      -4.112053      -7.242955      -1.483949      -0.200000                    
       7.947225       1.627335       5.543846      -0.200000                    
       6.165149       1.423806       5.360127      -0.006000                    
       5.676242       1.623026       6.313663       0.103000                    
       5.795033       2.121515       4.609038       0.103000                    
       5.858226      -0.008775       4.919786      -0.006000                    
       6.347122      -0.207988       3.966249       0.103000                    
       6.228335      -0.706468       5.670877       0.103000                    
       4.076138      -0.212297       4.736066      -0.200000                    
       2.214108      -8.497705       3.151289      -0.200000                    
       3.127097      -7.476179       1.979196      -0.006000                    
       2.473016      -6.695730       1.590602       0.103000                    
       3.979382      -7.019285       2.482000       0.103000                    
       3.624100      -8.346509       0.823410      -0.006000                    
       4.278181      -9.126958       1.212004       0.103000                    
       2.771818      -8.803409       0.320613       0.103000                    
       4.537092      -7.324991      -0.348674      -0.200000                    
       2.012886       6.793615      -5.136709      -0.200000                    
       2.109900       5.698320      -6.565583      -0.006000                    
       1.140642       5.662556      -7.062772       0.103000                    
       2.861368       6.072930      -7.260491       0.103000                    
       2.498222       4.292169      -6.104765      -0.006000                    
       3.467484       4.327923      -5.607585       0.103000                    
       1.746761       3.917544      -5.409859       0.103000                    
       2.595232       3.196867      -7.533643      -0.200000                    
       9.200710       0.521303      -2.314691      -0.200000                    
       9.688582      -0.756458      -1.139849      -0.006000                    
      10.774766      -0.773362      -1.051302       0.103000                    
       9.247736      -0.542658      -0.166258       0.103000                    
       9.196521      -2.118151      -1.633878      -0.006000                    
       8.110334      -2.101242      -1.722432       0.103000                    
       9.637368      -2.331951      -2.607469       0.103000                    
       9.684390      -3.395905      -0.459045      -0.200000                    
       3.649608      -5.786988      -6.884355      -0.200000                    
       5.157956      -5.692109      -5.901124      -0.006000                    
       5.524697      -6.698570      -5.699931       0.103000                    
       5.915079      -5.132210      -6.449939       0.103000                    
       4.860400      -4.984354      -4.577928      -0.006000                    
       4.493652      -3.977894      -4.779134       0.103000                    
       4.103271      -5.544255      -4.029125       0.103000                    
       6.368746      -4.889469      -3.594705      -0.200000                    
      -3.355616      -9.459206       1.437717      -0.200000                    
      -2.033808     -10.299306       0.544401      -0.006000                    
      -1.818991     -11.253329       1.025647       0.103000                    
      -2.344690     -10.473537      -0.485608       0.103000                    
      -0.776329      -9.428117       0.556505      -0.006000                    
      -0.991153      -8.474091       0.075265       0.103000                    
      -0.465446      -9.253884       1.586514       0.103000                    
       0.545480     -10.268217      -0.336812      -0.200000                    
      -9.158357       0.971005      -3.674655      -0.200000                    
      -7.797789      -0.115269      -4.143452      -0.006000                    
      -7.686085      -0.110926      -5.227643       0.103000                    
      -6.875577       0.237025      -3.681547       0.103000                    
      -8.094483      -1.538589      -3.667607      -0.006000                    
      -8.206191      -1.542926      -2.583423       0.103000                    
      -9.016698      -1.890876      -4.129519       0.103000                    
      -6.733925      -2.624861      -4.136398      -0.200000                    
      -8.890885      -2.746724       4.769227      -0.200000                    
      -8.388794      -3.054856       3.065170      -0.006000                    
      -7.300874      -3.047642       2.999726       0.103000                    
      -8.765847      -4.026056       2.744990       0.103000                    
      -8.960827      -1.962593       2.159580      -0.006000                    
     -10.048747      -1.969808       2.225024       0.103000                    
      -8.583777      -0.991387       2.479753       0.103000                    
      -8.458743      -2.270728       0.455512      -0.200000                    
       5.218791       9.469947       1.810691      -0.200000                    
       6.237880       9.939653       3.221983      -0.006000                    
       6.498966      10.995185       3.146644       0.103000                    
       5.683306       9.767242       4.144302       0.103000                    
       7.515509       9.098245       3.230921      -0.006000                    
       7.254419       8.042718       3.306252       0.103000                    
       8.070088       9.270658       2.308589       0.103000                    
       8.534595       9.567957       4.642206      -0.200000                    
       0.875847       5.471735       7.144664      -0.200000                    
       2.272799       4.389752       7.503627      -0.006000                    
       2.025249       3.743673       8.345794       0.103000                    
       2.493202       3.778225       6.628748       0.103000                    
       3.497189       5.237198       7.854389      -0.006000                    
       3.744747       5.883275       7.012218       0.103000                    
       3.276786       5.848725       8.729268       0.103000                    
       4.894143       4.155210       8.213360      -0.200000                    
       8.268656       2.264205      -6.240112      -0.200000                    
       7.405927       0.685205      -6.355515      -0.006000                    
       6.509766       0.714401      -5.735863       0.103000                    
       7.125265       0.499162      -7.392115       0.103000                    
       8.326102      -0.435444      -5.867914      -0.006000                    
       9.222263      -0.464639      -6.487566       0.103000                    
       8.606770      -0.249392      -4.831310       0.103000                    
       7.463377      -2.014436      -5.983313      -0.200000                    
       9.468201       1.535397       2.432477      -0.200000                    
      10.620819       2.910870       2.257878      -0.006000                    
      10.477769       3.384012       1.286482       0.103000                    
      10.439304       3.639808       3.047587       0.103000                    
      12.055503       2.390659       2.364789      -0.006000                    
      12.198552       1.917518       3.336186       0.103000                    
      12.237017       1.661720       1.575081       0.103000                    
      13.208108       3.766140       2.190189      -0.200000                    
      -5.390467      -4.255072       4.991431      -0.200000                    
      -6.397754      -5.666923       4.498581      -0.006000                    
      -7.048648      -5.954976       5.323977       0.103000                    
      -7.004432      -5.396707       3.634373       0.103000                    
      -5.486882      -6.840888       4.134549      -0.006000                    
      -4.835975      -6.552829       3.309151       0.103000                    
      -4.880199      -7.111095       4.998762       0.103000                    
      -6.494164      -8.252730       3.641702      -0.200000                    
      -8.160816       3.573044       0.968697      -0.200000                    
      -9.165721       4.149941      -0.412672      -0.006000                    
      -9.526700       3.293648      -0.982224       0.103000                    
     -10.014791       4.717732      -0.032421       0.103000                    
      -8.319579       5.045076      -1.319952      -0.006000                    
      -7.958597       5.901364      -0.750393       0.103000                    
      -7.470509       4.477285      -1.700204       0.103000                    
      -9.324488       5.621965      -2.701326      -0.200000                    
       8.875465      -7.077823      -0.142053      -0.200000                    
       8.234632      -6.919132       1.535775      -0.006000                    
       7.737914      -7.845370       1.824364       0.103000                    
       9.057529      -6.718859       2.221839       0.103000                    
       7.232294      -5.764765       1.591757      -0.006000                    
       7.728999      -4.838532       1.303171       0.103000                    
       6.409392      -5.965046       0.905690       0.103000                    
       6.591454      -5.606081       3.269582      -0.200000                    
      -2.116930      -6.353134       6.080975      -0.200000                    
      -1.511117      -7.599472       4.927494      -0.006000                    
      -2.028323      -7.494284       3.973882       0.103000                    
      -0.440006      -7.465397       4.776875       0.103000                    
      -1.774593      -8.993956       5.498790      -0.006000                    
      -1.257391      -9.099137       6.452393       0.103000                    
      -2.845708      -9.128024       5.649402       0.103000                    
      -1.168781     -10.240293       4.345308      -0.200000                    
      -8.793905       7.320441       1.712240      -0.200000                    
      -7.214803       6.933067       2.491486      -0.006000                    
      -6.546848       6.484595       1.756221       0.103000                    
      -6.766762       7.847761       2.879519       0.103000                    
      -7.441159       5.949309       3.641011      -0.006000                    
      -8.109114       6.397781       4.376276       0.103000                    
      -7.889199       5.034629       3.252975       0.103000                    
      -5.862054       5.561949       4.420253      -0.200000                    
      -1.600196       7.271075      -8.185147      -0.200000                    
      -2.726100       7.066753      -6.791768      -0.006000                    
      -2.183053       7.222452      -5.859668       0.103000                    
      -3.534185       7.794177      -6.867584       0.103000                    
      -3.309981       5.652886      -6.811049      -0.006000                    
      -3.853026       5.497182      -7.743142       0.103000                    
      -2.501898       4.925448      -6.735229       0.103000                    
      -4.435887       5.448550      -5.417665      -0.200000                    
      -6.157590      10.819699       2.901347      -0.200000                    
      -5.038239      10.540299       1.515739      -0.006000                    
      -5.254564       9.572743       1.062976       0.103000                    
      -5.174258      11.327312       0.774068       0.103000                    
      -3.592837      10.556588       2.016571      -0.006000                    
      -3.376511      11.524142       2.469333       0.103000                    
      -3.456829       9.769584       2.758240       0.103000                    
      -2.473485      10.277189       0.630963      -0.200000                    
      -2.733666      -4.127599       8.989928      -0.200000                    
      -3.738634      -3.348124       7.711911      -0.006000                    
      -3.160358      -3.270968       6.791287       0.103000                    
      -4.629405      -3.949978       7.532353       0.103000                    
      -4.153259      -1.949194       8.171782      -0.006000                    
      -4.731531      -2.026347       9.092393       0.103000                    
      -3.262489      -1.347341       8.351339       0.103000                    
      -5.158231      -1.169715       6.893758      -0.200000                    
      -0.614479      -5.980227      -6.165380      -0.200000                    
      -0.102117      -6.332531      -7.857754      -0.006000                    
       0.630720      -7.139297      -7.855283       0.103000                    
      -0.969873      -6.631426      -8.445588       0.103000                    
       0.522529      -5.078835      -8.472897      -0.006000                    
      -0.210304      -4.272061      -8.475364       0.103000                    
       1.390297      -4.779933      -7.885062       0.103000                    
       1.034899      -5.431141     -10.165276      -0.200000                    
      -7.511899      -5.685653       1.063151      -0.200000                    
      -8.655793      -6.691249       0.098199      -0.006000                    
      -9.680656      -6.427732       0.359166       0.103000                    
      -8.492831      -6.509230      -0.963997       0.103000                    
      -8.416672      -8.170999       0.404008      -0.006000                    
      -7.391810      -8.434517       0.143042       0.103000                    
      -8.579634      -8.353019       1.466205       0.103000                    
      -9.560572      -9.176602      -0.560947      -0.200000                    
      -6.162247       2.597991       6.346034      -0.200000                    
      -7.932230       2.547322       6.006152      -0.006000                    
      -8.416530       1.862021       6.701682       0.103000                    
      -8.354122       3.545154       6.125796       0.103000                    
      -8.162598       2.065350       4.572620      -0.006000                    
      -7.678298       2.750651       3.877090       0.103000                    
      -7.740705       1.067517       4.452976       0.103000                    
      -9.932581       2.014680       4.232738      -0.200000                    
       2.198473      -2.350061      -7.106284      -0.200000                    
       2.655087      -1.267065      -8.473621      -0.006000                    
       2.219889      -0.280162      -8.316714       0.103000                    
       3.740565      -1.182028      -8.523190       0.103000                    
       2.129596      -1.852837      -9.785510      -0.006000                    
       2.564794      -2.839741      -9.942417       0.103000                    
       1.044122      -1.937881      -9.735933       0.103000                    
       2.586213      -0.769848     -11.152840      -0.200000                    
      11.973376       2.217597      -1.889386      -0.200000                    
      11.250371       3.744206      -1.258742      -0.006000                    
      10.184446       3.597110      -1.085218       0.103000                    
      11.736861       4.017220      -0.322389       0.103000                    
      11.450166       4.863783      -2.281954      -0.006000                    
      12.516081       5.010882      -2.455473       0.103000                    
      10.963675       4.590769      -3.218307       0.103000                    
      10.727155       6.390385      -1.651314      -0.200000                    
      -6.932842       3.229332      -4.916880      -0.200000                    
      -7.568459       3.881301      -6.473112      -0.006000                    
      -8.343144       4.620127      -6.268406       0.103000                    
      -6.756854       4.350119      -7.029414       0.103000                    
      -8.160051       2.738896      -7.300884      -0.006000                    
      -7.385370       2.000062      -7.505594       0.103000                    
      -8.971656       2.270078      -6.744582       0.103000                    
      -8.795669       3.390865      -8.857116      -0.200000                    
       8.382825      -2.607451       3.609382      -0.200000                    
       9.481611      -1.986030       4.896766      -0.006000                    
       9.019939      -1.128468       5.386046       0.103000                    
       9.661066      -2.770748       5.631565       0.103000                    
      10.811103      -1.560583       4.270817      -0.006000                    
      11.272766      -2.418147       3.781525       0.103000                    
      10.631639      -0.775868       3.536007       0.103000                    
      11.909884      -0.939171       5.558198      -0.200000                    
      -1.095308      12.987809      -1.913816      -0.200000                    