%nprocshared=4                                                                       
%mem=8GB                                                                             
#P pop=chelpg cam-b3lyp/gen scf=qc int=ultrafine charge td(nstates=10)               
                                                                                     
pNA CAM-B3LYP def2-TZVPD Single point - solvent def2-SV(P)                           
                                                                                     
0 1                                                                                  
 C       1.389235       0.000000      -0.000000                                 
 C       0.000000       0.000000      -0.000000                                 
 C      -0.711164       1.193419       0.000000                                 
 C      -0.034074       2.386367       0.000141                                 
 C       1.370482       2.412065       0.000933                                 
 C       2.067428       1.192342       0.000144                                 
 H       1.924301      -0.937208       0.000967                                 
 H      -1.790186       1.173300       0.000962                                 
 H      -0.583208       3.318526      -0.000772                                 
 H       3.149318       1.197759      -0.000767                                 
 N      -0.711160      -1.251627       0.001756                                 
 O      -1.932441      -1.229701       0.002542                                 
 O      -0.067142      -2.289538       0.002483                                 
 N       2.040236       3.590780      -0.024683                                 
 H       1.546357       4.451509       0.132529                                 
 H       3.032458       3.607145       0.132525                                 
Cl      -1.736733      -5.119761      -3.348500                                 
 C      -3.082656      -4.900808      -2.168904                                 
 H      -3.975600      -4.563005      -2.694716                                 
 H      -3.289556      -5.849168      -1.673210                                 
 C      -2.680941      -3.857285      -1.124826                                 
 H      -1.787990      -4.195083      -0.599020                                 
 H      -2.474042      -2.908926      -1.620520                                 
Cl      -4.026862      -3.638318       0.054767                                 
Cl       1.118981       6.841818       0.963254                                 
 C       2.193489       7.536717      -0.306937                                 
 H       3.198342       7.662767       0.095969                                 
 H       2.226949       6.863214      -1.163190                                 
 C       1.647710       8.895814      -0.748924                                 
 H       0.642864       8.769769      -1.151837                                 
 H       1.614257       9.569323       0.107322                                 
Cl       2.722215       9.590721      -2.019111                                 
Cl      -4.523279       0.994232       0.313102                                 
 C      -3.893660       0.889464       1.999365                                 
 H      -3.103652       0.140066       2.046577                                 
 H      -3.494215       1.858238       2.299165                                 
 C      -5.029564       0.492388       2.944064                                 
 H      -5.819572       1.241782       2.896866                                 
 H      -5.429010      -0.476385       2.644264                                 
Cl      -4.399945       0.387616       4.630341                                 
Cl      -2.286073      -1.414226      -3.502752                                 
 C      -3.759213      -0.549859      -2.925062                                 
 H      -4.648717      -1.077524      -3.269053                                 
 H      -3.756118      -0.514221      -1.835729                                 
 C      -3.765271       0.875235      -3.481362                                 
 H      -2.875763       1.402891      -3.137375                                 
 H      -3.768359       0.839602      -4.570702                                 
Cl      -5.238401       1.739598      -2.903682                                 
Cl      -2.423508       2.785830       5.040596                                 
 C      -0.660941       2.647771       4.686849                                 
 H      -0.093218       2.792619       5.605905                                 
 H      -0.448099       1.659274       4.280020                                 
 C      -0.260357       3.715409       3.667029                                 
 H      -0.828073       3.570566       2.747968                                 
 H      -0.473199       4.703906       4.073859                                 
Cl       1.502214       3.577343       3.313279                                 
                                                                                
       5.949980      -0.692893       0.407238      -0.200000                    
       6.093289      -0.090447      -1.286068      -0.006000                    
       5.099807       0.116670      -1.683600       0.103000                    
       6.687350       0.823283      -1.297830       0.103000                    
       6.776023      -1.153048      -2.149287      -0.006000                    
       7.769506      -1.360164      -1.751756       0.103000                    
       6.181969      -2.066772      -2.137532       0.103000                    
       6.919332      -0.550601      -3.842594      -0.200000                    
       4.911417       2.084455       1.992848      -0.200000                    
       6.598987       2.579550       2.390242      -0.006000                    
       7.086964       1.786116       2.956146       0.103000                    
       7.151287       2.761066       1.468305       0.103000                    
       6.571083       3.859461       3.227746      -0.006000                    
       6.083106       4.652895       2.661842       0.103000                    
       6.018781       3.677932       4.149686       0.103000                    
       8.258654       4.354556       3.625140      -0.200000                    
      -5.078325       8.219870       0.882421      -0.200000                    
      -4.764908       6.456650       0.673406      -0.006000                    
      -5.509332       5.886657       1.229148       0.103000                    
      -4.825132       6.199502      -0.384031       0.103000                    
      -3.368563       6.120945       1.200546      -0.006000                    
      -2.624130       6.690933       0.644795       0.103000                    
      -3.308329       6.378088       2.257974       0.103000                    
      -3.055133       4.357730       0.991531      -0.200000                    
       4.135084      -3.265140      -0.938131      -0.200000                    
       3.250519      -4.393769       0.154856      -0.006000                    
       3.620088      -4.277644       1.173606       0.103000                    
       2.184862      -4.166759       0.126596       0.103000                    
       3.476947      -5.834181      -0.308077      -0.006000                    
       3.107388      -5.950310      -1.326837       0.103000                    
       4.542606      -6.061196      -0.279834       0.103000                    
       2.592376      -6.962811       0.784903      -0.200000                    
       4.295203      -3.852826       4.056667      -0.200000                    
       3.878393      -2.114388       3.822134      -0.006000                    
       4.095964      -1.561836       4.736080       0.103000                    
       4.468433      -1.706540       3.001531       0.103000                    
       2.390078      -1.986912       3.491899      -0.006000                    
       2.172494      -2.539469       2.577953       0.103000                    
       1.800038      -2.394759       4.312502       0.103000                    
       1.973268      -0.248472       3.257367      -0.200000                    
       1.145103       4.523943      -3.373419      -0.200000                    
       0.107111       3.158453      -3.929167      -0.006000                    
       0.370773       2.254525      -3.380193       0.103000                    
      -0.940077       3.400970      -3.748735       0.103000                    
       0.326054       2.927725      -5.425541      -0.006000                    
       0.062393       3.831653      -5.974514       0.103000                    
       1.373235       2.685208      -5.605979       0.103000                    
      -0.711938       1.562236      -5.981288      -0.200000                    
       2.586368      -4.490125      -4.573190      -0.200000                    
       1.853905      -3.035391      -3.799768      -0.006000                    
       0.836214      -2.902168      -4.166529       0.103000                    
       1.836031      -3.168814      -2.718168       0.103000                    
       2.686328      -1.799685      -4.146902      -0.006000                    
       3.704019      -1.932908      -3.780141       0.103000                    
       2.704208      -1.666256      -5.228508       0.103000                    
       1.953872      -0.344951      -3.373472      -0.200000                    
      -1.887748      -1.544005       4.032532      -0.200000                    
      -2.318206      -3.254169       3.657034      -0.006000                    
      -1.844203      -3.551423       2.721647       0.103000                    
      -1.971249      -3.901613       4.462239       0.103000                    
      -3.836780      -3.379667       3.520951      -0.006000                    
      -4.310790      -3.082412       4.456330       0.103000                    
      -4.183754      -2.732219       2.715748       0.103000                    
      -4.267255      -5.089826       3.145455      -0.200000                    
       8.085336       2.705292      -3.540502      -0.200000                    
       6.627780       3.351609      -2.698626      -0.006000                    
       5.754341       2.763999      -2.981071       0.103000                    
       6.773808       3.290566      -1.620274       0.103000                    
       6.411592       4.811474      -3.101584      -0.006000                    
       7.285028       5.399075      -2.819149       0.103000                    
       6.265567       4.872508      -4.179939       0.103000                    
       4.954036       5.457791      -2.259708      -0.200000                    
      -1.896241      -8.927046       2.535541      -0.200000                    
      -0.622848      -7.676549       2.279402      -0.006000                    
       0.325112      -8.035602       2.679862       0.103000                    
      -0.515745      -7.479877       1.212727       0.103000                    
      -1.023265      -6.386461       2.997543      -0.006000                    
      -1.971228      -6.027400       2.597086       0.103000                    
      -1.130374      -6.583138       4.064224       0.103000                    
       0.250119      -5.135961       2.741413      -0.200000                    
       8.541861       6.169197       0.475268      -0.200000                    
       7.180201       7.228581      -0.048672      -0.006000                    
       7.285234       7.457970      -1.109005       0.103000                    
       6.233986       6.714681       0.120132       0.103000                    
       7.205284       8.527891       0.758512      -0.006000                    
       7.100251       8.298502       1.818845       0.103000                    
       8.151502       9.041806       0.589703       0.103000                    
       5.843631       9.587281       0.234566      -0.200000                    
       4.779236       7.666763       8.256943      -0.200000                    
       5.174919       7.299883       6.536578      -0.006000                    
       5.465719       8.218168       6.026590       0.103000                    
       5.997473       6.585885       6.496968       0.103000                    
       3.947225       6.701319       5.847437      -0.006000                    
       3.656425       5.783034       6.357426       0.103000                    
       3.124668       7.415308       5.887037       0.103000                    
       4.342908       6.334439       4.127073      -0.200000                    
      -3.952029       5.837442      -3.082249      -0.200000                    
      -5.077720       6.994102      -3.885979      -0.006000                    
      -6.105135       6.658526      -3.745542       0.103000                    
      -4.955569       7.984440      -3.447508       0.103000                    
      -4.762254       7.056755      -5.381605      -0.006000                    
      -3.734837       7.392322      -5.522045       0.103000                    
      -4.884409       6.066408      -5.820085       0.103000                    
      -5.887954       8.213414      -6.185342      -0.200000                    
       6.493398       0.747106       5.882606      -0.200000                    
       4.729575       1.081732       6.049510      -0.006000                    
       4.578572       2.140822       6.258001       0.103000                    
       4.220110       0.817355       5.122964       0.103000                    
       4.159315       0.249788       7.199737      -0.006000                    
       4.310319      -0.809288       6.991242       0.103000                    
       4.668778       0.514170       8.126268       0.103000                    
       2.395498       0.584420       7.366634      -0.200000                    
      -7.887289       4.535167      -0.213014      -0.200000                    
      -7.560959       2.855618       0.355738      -0.006000                    
      -7.085583       2.287047      -0.443456       0.103000                    
      -6.900392       2.887046       1.222106       0.103000                    
      -8.879220       2.183688       0.744354      -0.006000                    
      -9.354604       2.752254       1.543554       0.103000                    
      -9.539794       2.152254      -0.122008       0.103000                    
      -8.552896       0.504134       1.313112      -0.200000                    
      -0.457215      10.795641      -3.107127      -0.200000                    
      -0.971748       9.844750      -4.550025      -0.006000                    
      -2.058096       9.756893      -4.559056       0.103000                    
      -0.640415      10.351376      -5.456371       0.103000                    
      -0.348289       8.449009      -4.489735      -0.006000                    
       0.738059       8.536866      -4.480704       0.103000                    
      -0.679619       7.942392      -3.583378       0.103000                    
      -0.862820       7.498133      -5.932636      -0.200000                    
       1.121619       8.739917       4.230674      -0.200000                    
       0.328451       8.838943       5.846835      -0.006000                    
       0.262824       7.841534       6.281357       0.103000                    
       0.915982       9.482715       6.501330       0.103000                    
      -1.078104       9.419752       5.689841      -0.006000                    
      -1.012470      10.417166       5.255312       0.103000                    
      -1.665635       8.775979       5.035346       0.103000                    
      -1.871266       9.518784       7.305996      -0.200000                    
      11.532633       3.339427       0.482943      -0.200000                    
      10.202079       2.123055       0.452263      -0.006000                    
       9.244060       2.634421       0.359029       0.103000                    
      10.340973       1.453605      -0.396545       0.103000                    
      10.222534       1.312111       1.749315      -0.006000                    
      11.180557       0.800737       1.842546       0.103000                    
      10.083640       1.981562       2.598123       0.103000                    
       8.891979       0.095741       1.718635      -0.200000                    
      -6.259592       5.776938       4.065839      -0.200000                    
      -5.747002       4.421876       5.139111      -0.006000                    
      -5.374146       3.597653       4.531193       0.103000                    
      -4.958265       4.766188       5.807893       0.103000                    
      -6.943189       3.945142       5.965097      -0.006000                    
      -7.316041       4.769356       6.573012       0.103000                    
      -7.731925       3.600830       5.296315       0.103000                    
      -6.430599       2.590080       7.038370      -0.200000                    
       4.647459       2.673832      -5.968601      -0.200000                    
       5.756074       2.594531      -7.388287      -0.006000                    
       5.315172       1.962505      -8.159036       0.103000                    
       5.910742       3.597736      -7.785285       0.103000                    
       7.099630       2.005885      -6.953846      -0.006000                    
       7.540533       2.637912      -6.183098       0.103000                    
       6.944966       1.002673      -6.556851       0.103000                    
       8.208249       1.926575      -8.373534      -0.200000                    
      -5.433064      -2.268767      -6.414259      -0.200000                    
      -4.165603      -3.035879      -7.441816      -0.006000                    
      -4.510392      -4.014966      -7.774138       0.103000                    
      -3.970167      -2.405572      -8.309241       0.103000                    
      -2.879406      -3.197493      -6.629454      -0.006000                    
      -2.534616      -2.218405      -6.297130       0.103000                    
      -3.074851      -3.827796      -5.762018       0.103000                    
      -1.611948      -3.964596      -7.657007      -0.200000                    
      -5.059173      -8.654890       2.492204      -0.200000                    
      -5.269755      -7.885108       0.875440      -0.006000                    
      -6.286204      -7.502360       0.784610       0.103000                    
      -4.561131      -7.063896       0.768679       0.103000                    
      -5.016233      -8.922353      -0.220092      -0.006000                    
      -3.999777      -9.305099      -0.129255       0.103000                    
      -5.724857      -9.743565      -0.113331       0.103000                    
      -5.226815      -8.152571      -1.836857      -0.200000                    
     -10.382195       1.528973      -5.322017      -0.200000                    
      -9.655475       0.262030      -4.264894      -0.006000                    
      -9.684080       0.594062      -3.227185       0.103000                    
     -10.221048      -0.664147      -4.365992       0.103000                    
      -8.203725       0.020559      -4.682619      -0.006000                    
      -8.175106      -0.311467      -5.720328       0.103000                    
      -7.638152       0.946736      -4.581522       0.103000                    
      -7.476999      -1.246379      -3.625503      -0.200000                    
      -0.403385      -8.484360      -5.047822      -0.200000                    
       1.336294      -8.021019      -4.949390      -0.006000                    
       1.874075      -8.445358      -5.797140       0.103000                    
       1.424968      -6.934897      -4.969363       0.103000                    
       1.933821      -8.557035      -3.647103      -0.006000                    
       1.396039      -8.132696      -2.799353       0.103000                    
       1.845154      -9.643157      -3.627123       0.103000                    
       3.673501      -8.093700      -3.548659      -0.200000                    
       7.355322      -4.800598       0.059980      -0.200000                    
       8.991471      -4.126223       0.405295      -0.006000                    
       9.026499      -3.081357       0.097136       0.103000                    
       9.195958      -4.197280       1.473508       0.103000                    
      10.044513      -4.921236      -0.368926      -0.006000                    
      10.009484      -5.966101      -0.060768       0.103000                    
       9.840026      -4.850178      -1.437139       0.103000                    
      11.680669      -4.246860      -0.023604      -0.200000                    
      -6.613767      -4.617835      -3.917660      -0.200000                    
      -8.244864      -4.813462      -3.174563      -0.006000                    
      -8.704139      -3.833888      -3.042610       0.103000                    
      -8.870424      -5.423512      -3.826058       0.103000                    
      -8.106421      -5.498622      -1.813756      -0.006000                    
      -7.647149      -6.478195      -1.945709       0.103000                    
      -7.480862      -4.888572      -1.162261       0.103000                    
      -9.737526      -5.694253      -1.070654      -0.200000                    
      -1.274487       2.009276       8.544263      -0.200000                    
      -1.424377       0.284384       8.041066      -0.006000                    
      -1.282090       0.206416       6.963305       0.103000                    
      -0.667189      -0.310438       8.551718       0.103000                    
      -2.814972      -0.235495       8.410210      -0.006000                    
      -2.957259      -0.157526       9.487971       0.103000                    
      -3.572157       0.359320       7.899556       0.103000                    
      -2.964862      -1.960385       7.907013      -0.200000                    
       7.342675      -6.672750       3.607404      -0.200000                    
       6.237602      -8.038559       3.202027      -0.006000                    
       6.227936      -8.190379       2.122769       0.103000                    
       6.586283      -8.946607       3.693782       0.103000                    
       4.822993      -7.709916       3.682906      -0.006000                    
       4.832668      -7.558100       4.762155       0.103000                    
       4.474320      -6.801872       3.191142       0.103000                    
       3.717926      -9.075721       3.277523      -0.200000                    
       5.912293      -4.777401      -7.599012      -0.200000                    
       6.631005      -3.972435      -6.154551      -0.006000                    
       7.277239      -3.156154      -6.477154       0.103000                    
       5.834216      -3.577907      -5.524133       0.103000                    
       7.452776      -4.989309      -5.360199      -0.006000                    
       6.806541      -5.805585      -5.037610       0.103000                    
       8.249571      -5.383832      -5.990623       0.103000                    
       8.171477      -4.184334      -3.915741      -0.200000                    
       0.834188       1.087516      -9.284884      -0.200000                    
       1.921359       0.528619      -7.959521      -0.006000                    
       2.171268       1.371021      -7.314679       0.103000                    
       1.416101      -0.239720      -7.374469       0.103000                    
       3.203274      -0.050040      -8.561368      -0.006000                    
       2.953365      -0.892443      -9.206209       0.103000                    
       3.708527       0.718293      -9.146414       0.103000                    
       4.290445      -0.608937      -7.236004      -0.200000                    
      -1.231030      -9.436563      -1.363423      -0.200000                    
      -0.324795     -10.982708      -1.165561      -0.006000                    
      -0.683658     -11.710180      -1.893520       0.103000                    
       0.738562     -10.803738      -1.324269       0.103000                    
      -0.544654     -11.525369       0.247790      -0.006000                    
      -0.185798     -10.797896       0.975742       0.103000                    
      -1.608011     -11.704338       0.406499       0.103000                    
       0.361575     -13.071519       0.445659      -0.200000                    
       4.372139      12.931203       2.272255      -0.200000                    
       3.894489      11.643618       3.440523      -0.006000                    
       2.807695      11.569013       3.475052       0.103000                    
       4.314454      10.689633       3.121927       0.103000                    
       4.425437      11.994775       4.831601      -0.006000                    
       5.512236      12.069369       4.797069       0.103000                    
       4.005473      12.948758       5.150198       0.103000                    
       3.947788      10.707188       5.999869      -0.200000                    
      -7.282630      -2.609785       5.173553      -0.200000                    
      -7.481177      -1.523605       6.598914      -0.006000                    
      -6.770683      -0.699958       6.530147       0.103000                    
      -8.496442      -1.127525       6.615567       0.103000                    
      -7.221735      -2.314302       7.882612      -0.006000                    
      -7.932232      -3.137958       7.951369       0.103000                    
      -6.206467      -2.710390       7.865958       0.103000                    
      -7.420282      -1.228121       9.307975      -0.200000                    
      -5.835268       2.021643      -6.545210      -0.200000                    
      -6.425968       2.381836      -8.210217      -0.006000                    
      -7.403408       1.922384      -8.356550       0.103000                    
      -6.508063       3.460754      -8.341417       0.103000                    
      -5.439469       1.817747      -9.234428      -0.006000                    
      -4.462025       2.277192      -9.088099       0.103000                    
      -5.357367       0.738835      -9.103235       0.103000                    
      -6.030168       2.177941     -10.899437      -0.200000                    
      -2.977759      -6.177046       6.084224      -0.200000                    
      -4.388615      -5.960611       7.185830      -0.006000                    
      -4.278163      -6.614444       8.050854       0.103000                    
      -4.435075      -4.923442       7.517629       0.103000                    
      -5.676662      -6.315162       6.440470      -0.006000                    
      -5.787120      -5.661334       5.575452       0.103000                    
      -5.630205      -7.352322       6.108673       0.103000                    
      -7.087528      -6.098722       7.542086      -0.200000                    
      -3.721894      10.062740       3.630953      -0.200000                    
      -4.851943       8.985825       4.533288      -0.006000                    
      -5.640296       8.642947       3.863292       0.103000                    
      -4.304301       8.126528       4.920076       0.103000                    
      -5.473552       9.759731       5.697366      -0.006000                    
      -4.685197      10.102609       6.367362       0.103000                    
      -6.021200      10.619023       5.310584       0.103000                    
      -6.603607       8.682811       6.599707      -0.200000                    
       2.607453      10.690140      -6.026899      -0.200000                    
       4.329464      10.542706      -5.513286      -0.006000                    
       4.498477       9.553752      -5.087441       0.103000                    
       4.979668      10.682670      -6.376752       0.103000                    
       4.641316      11.609892      -4.462457      -0.006000                    
       4.472297      12.598846      -4.888309       0.103000                    
       3.991119      11.469933      -3.598997       0.103000                    
       6.363333      11.462462      -3.948850      -0.200000                    
       1.419996      -7.266018       9.712840      -0.200000                    
       0.939459      -7.990871       8.133384      -0.006000                    
       1.086482      -9.070248       8.168975       0.103000                    
      -0.110448      -7.773209       7.937865       0.103000                    
       1.799506      -7.396155       7.016682      -0.006000                    
       1.652483      -6.316778       6.981091       0.103000                    
       2.849413      -7.613817       7.212200       0.103000                    
       1.318981      -8.121017       5.437230      -0.200000                    
       6.102586      -7.042326       7.104555      -0.200000                    