%nprocshared=4                                                                       
%mem=8GB                                                                             
#P pop=chelpg cam-b3lyp/gen scf=qc int=ultrafine charge td(nstates=10)               
                                                                                     
pNA CAM-B3LYP def2-TZVPD Single point - solvent def2-SV(P)                           
                                                                                     
0 1                                                                                  
 C       1.389235       0.000000      -0.000000                                 
 C       0.000000       0.000000      -0.000000                                 
 C      -0.711164       1.193419       0.000000                                 
 C      -0.034074       2.386367       0.000141                                 
 C       1.370482       2.412065       0.000933                                 
 C       2.067428       1.192342       0.000144                                 
 H       1.924301      -0.937208       0.000967                                 
 H      -1.790186       1.173300       0.000962                                 
 H      -0.583208       3.318526      -0.000772                                 
 H       3.149318       1.197759      -0.000767                                 
 N      -0.711160      -1.251627       0.001756                                 
 O      -1.932441      -1.229701       0.002542                                 
 O      -0.067142      -2.289538       0.002483                                 
 N       2.040236       3.590780      -0.024683                                 
 H       1.546357       4.451509       0.132529                                 
 H       3.032458       3.607145       0.132525                                 
Cl       5.817528      -1.476864      -1.308301                                 
 C       4.461529      -0.655880      -2.167457                                 
 H       3.612405      -1.335362      -2.239581                                 
 H       4.167511       0.235965      -1.614188                                 
 C       4.915497      -0.256912      -3.572850                                 
 H       5.764620       0.422570      -3.500725                                 
 H       5.209515      -1.148756      -4.126108                                 
Cl       3.559498       0.564073      -4.431995                                 
Cl      -4.762477       4.331753      -0.596065                                 
 C      -3.100719       4.338828      -1.295620                                 
 H      -2.535222       3.496214      -0.897954                                 
 H      -3.162621       4.255473      -2.380593                                 
 C      -2.396751       5.645367      -0.924434                                 
 H      -2.962241       6.487975      -1.322109                                 
 H      -2.334841       5.728716       0.160530                                 
Cl      -0.734994       5.652442      -1.623989                                 
Cl       3.758909       2.585212       4.366628                                 
 C       4.390750       1.477686       3.091858                                 
 H       4.129819       1.868750       2.108531                                 
 H       5.474786       1.404855       3.178196                                 
 C       3.771249       0.090174       3.269051                                 
 H       4.032189      -0.300895       4.252369                                 
 H       2.687213       0.163004       3.182703                                 
Cl       4.403094      -1.017344       1.994270                                 
Cl       4.927174       5.115811       0.189095                                 
 C       5.815988       4.358504       1.562920                                 
 H       5.144629       4.250096       2.414654                                 
 H       6.182766       3.377280       1.261913                                 
 C       6.998580       5.245741       1.956159                                 
 H       7.669943       5.354158       1.104424                                 
 H       6.631796       6.226981       2.257174                                 
Cl       7.887385       4.488439       3.329983                                 
Cl      -3.322738      -5.364460       1.720015                                 
 C      -2.997993      -3.614588       2.008775                                 
 H      -2.155678      -3.295034       1.395299                                 
 H      -3.881089      -3.032602       1.745319                                 
 C      -2.664931      -3.394684       3.485622                                 
 H      -3.507255      -3.714233       4.099098                                 
 H      -1.781844      -3.976666       3.749068                                 
Cl      -2.340194      -1.644807       3.774382                                 
                                                                                
      -1.971938      -4.842039      -3.068082      -0.200000                    
      -3.169067      -3.859850      -2.144495      -0.006000                    
      -2.667333      -3.359841      -1.316108       0.103000                    
      -3.613523      -3.114279      -2.803667       0.103000                    
      -4.266211      -4.775118      -1.597736      -0.006000                    
      -4.767945      -5.275128      -2.426124       0.103000                    
      -3.821764      -5.520686      -0.938575       0.103000                    
      -5.463348      -3.792925      -0.674150      -0.200000                    
       1.190217      -2.509819       3.136783      -0.200000                    
       1.312175      -4.308166       3.181607      -0.006000                    
       2.356800      -4.599104       3.291357       0.103000                    
       0.737697      -4.690623       4.025197       0.103000                    
       0.755427      -4.889602       1.880721      -0.006000                    
      -0.289188      -4.598669       1.770972       0.103000                    
       1.329914      -4.507149       1.037132       0.103000                    
       0.877394      -6.687953       1.925545      -0.200000                    
       3.848850       7.600718       3.105166      -0.200000                    
       2.483600       7.452417       1.936853      -0.006000                    
       2.166473       8.445941       1.620197       0.103000                    
       2.809126       6.880549       1.067970       0.103000                    
       1.312383       6.734215       2.609744      -0.006000                    
       1.629505       5.740682       2.926392       0.103000                    
       0.986865       7.306078       3.478617       0.103000                    
      -0.052858       6.585909       1.441421      -0.200000                    
      -2.604719       1.715499      -5.300156      -0.200000                    
      -1.100760       0.869816      -4.776783      -0.006000                    
      -0.639806       0.382691      -5.635958       0.103000                    
      -0.405138       1.594005      -4.352980       0.103000                    
      -1.447932      -0.181322      -3.720874      -0.006000                    
      -1.908886       0.305801      -2.861709       0.103000                    
      -2.143545      -0.905517      -4.144686       0.103000                    
       0.056027      -1.027006      -3.197510      -0.200000                    
       2.700021      -3.876952      -1.503065      -0.200000                    
       1.625100      -5.280614      -1.856946      -0.006000                    
       0.759831      -5.251937      -1.194797       0.103000                    
       1.291563      -5.230893      -2.893394       0.103000                    
       2.395929      -6.582709      -1.631775      -0.006000                    
       3.261193      -6.611374      -2.293926       0.103000                    
       2.729462      -6.632417      -0.595329       0.103000                    
       1.321008      -7.986372      -1.985657      -0.200000                    
      -4.536676       1.181256       2.111344      -0.200000                    
      -6.196578       0.736867       1.565278      -0.006000                    
      -6.922554       1.053117       2.314212       0.103000                    
      -6.412356       1.231363       0.618244       0.103000                    
      -6.283598      -0.779167       1.379756      -0.006000                    
      -5.557626      -1.095426       0.630824       0.103000                    
      -6.067825      -1.273672       2.326792       0.103000                    
      -7.943501      -1.223557       0.833681      -0.200000                    
      -1.791654       4.397764       5.009126      -0.200000                    
      -0.536875       3.167018       4.607029      -0.006000                    
      -0.365094       3.161144       3.530741       0.103000                    
       0.391712       3.412842       5.122051       0.103000                    
      -1.016691       1.784810       5.053832      -0.006000                    
      -1.188472       1.790683       6.130110       0.103000                    
      -1.945278       1.538985       4.538799       0.103000                    
       0.238079       0.554069       4.651734      -0.200000                    
       5.217663       3.637198      -2.967731      -0.200000                    
       6.924437       3.723312      -3.542452      -0.006000                    
       7.567394       3.172253      -2.856238       0.103000                    
       6.995379       3.285414      -4.538010       0.103000                    
       7.371286       5.185439      -3.596057      -0.006000                    
       6.728324       5.736489      -4.282269       0.103000                    
       7.300344       5.623338      -2.600498       0.103000                    
       9.078055       5.271545      -4.170766      -0.200000                    
       0.136585      11.539197      -0.904979      -0.200000                    
       1.463224      10.353390      -1.196359      -0.006000                    
       2.110092      10.720078      -1.993259       0.103000                    
       2.045878      10.228164      -0.283786       0.103000                    
       0.862998       9.007244      -1.606270      -0.006000                    
       0.216134       8.640563      -0.809382       0.103000                    
       0.280344       9.132469      -2.518854       0.103000                    
       2.189637       7.821436      -1.897661      -0.200000                    
       6.192760      -3.993372       2.740726      -0.200000                    
       5.968110      -4.649429       1.076360      -0.006000                    
       5.108531      -4.169041       0.609159       0.103000                    
       6.861453      -4.451878       0.484042       0.103000                    
       5.729897      -6.158767       1.151052      -0.006000                    
       6.589480      -6.639145       1.618263       0.103000                    
       4.836559      -6.356308       1.743379       0.103000                    
       5.505252      -6.814815      -0.513305      -0.200000                    
      -6.402167       3.146832       4.783635      -0.200000                    
      -5.508815       4.680549       4.466669      -0.006000                    
      -6.157362       5.529963       4.680744       0.103000                    
      -4.626953       4.726346       5.105555       0.103000                    
      -5.077826       4.725764       2.999506      -0.006000                    
      -4.429269       3.876346       2.785430       0.103000                    
      -5.959678       4.679962       2.360620       0.103000                    
      -4.184473       6.259481       2.682540      -0.200000                    
      -1.145484       6.672417      -5.560549      -0.200000                    
       0.586755       6.896113      -5.113162      -0.006000                    
       0.674747       7.713057      -4.397071       0.103000                    
       0.968286       5.978168      -4.666177       0.103000                    
       1.398443       7.227887      -6.366745      -0.006000                    
       1.310451       6.410945      -7.082826       0.103000                    
       1.016917       8.145819      -6.813727       0.103000                    
       3.130692       7.451580      -5.919358      -0.200000                    
      -5.210456      -0.275892      -4.100135      -0.200000                    
      -6.540847      -0.035708      -2.907125      -0.006000                    
      -6.560891      -0.874239      -2.211165       0.103000                    
      -6.372777       0.889798      -2.356551       0.103000                    
      -7.878608       0.046149      -3.644762      -0.006000                    
      -7.858565       0.884679      -4.340731       0.103000                    
      -8.046679      -0.879358      -4.195345       0.103000                    
      -9.209001       0.286332      -2.451761      -0.200000                    
       5.766632       2.858683      -6.847781      -0.200000                    
       3.979485       2.862406      -7.086602      -0.006000                    
       3.742449       3.312182      -8.050695       0.103000                    
       3.607227       1.838304      -7.061826       0.103000                    
       3.317511       3.672195      -5.970169      -0.006000                    
       3.554551       3.222428      -5.006076       0.103000                    
       3.689769       4.696298      -5.994934       0.103000                    
       1.530367       3.675926      -6.208991      -0.200000                    
      10.068073      -2.256662       3.745413      -0.200000                    
       8.761209      -1.166523       3.149960      -0.006000                    
       8.056623      -1.739197       2.546998       0.103000                    
       8.239115      -0.726938       3.999715       0.103000                    
       9.374225      -0.053831       2.297611      -0.006000                    
      10.078800       0.518847       2.900572       0.103000                    
       9.896318      -0.493416       1.447856       0.103000                    
       8.067360       1.036308       1.702158      -0.200000                    
       7.071977       8.700969       0.162776      -0.200000                    
       7.501738       8.976327      -1.566522      -0.006000                    
       7.933044       9.970840      -1.680064       0.103000                    
       8.226607       8.227178      -1.884753       0.103000                    
       6.242827       8.865583      -2.428665      -0.006000                    
       5.811522       7.871071      -2.315112       0.103000                    
       5.517958       9.614732      -2.110434       0.103000                    
       6.672588       9.140943      -4.157952      -0.200000                    
      -6.574284      -0.552526       5.250046      -0.200000                    
      -5.028187      -0.025761       6.013600      -0.006000                    
      -4.285509       0.162534       5.238412       0.103000                    
      -5.197227       0.887122       6.584560       0.103000                    
      -4.520889      -1.124983       6.948843      -0.006000                    
      -5.263576      -1.313273       7.724030       0.103000                    
      -4.351848      -2.037865       6.377882       0.103000                    
      -2.974800      -0.598213       7.712397      -0.200000                    
       7.084468       5.950215       6.860878      -0.200000                    
       5.524071       5.446416       6.110961      -0.006000                    
       5.485654       5.798505       5.080195       0.103000                    
       5.447283       4.359320       6.126919       0.103000                    
       4.360738       6.050875       6.899437      -0.006000                    
       4.399151       5.698777       7.930204       0.103000                    
       4.437531       7.137958       6.883481       0.103000                    
       2.800350       5.547070       6.149512      -0.200000                    
      -4.289074       6.893302      -6.732851      -0.200000                    
      -5.048910       6.042197      -5.336732      -0.006000                    
      -4.689518       6.479201      -4.405172       0.103000                    
      -6.132358       6.146707      -5.393135       0.103000                    
      -4.677296       4.558827      -5.380220      -0.006000                    
      -5.036687       4.121824      -6.311780       0.103000                    
      -3.593848       4.454319      -5.323808       0.103000                    
      -5.437132       3.707722      -3.984092      -0.200000                    
       2.418934      -5.445726      -5.570639      -0.200000                    
       1.037800      -6.573801      -5.836707      -0.006000                    
       1.311534      -7.312373      -6.590043       0.103000                    
       0.796541      -7.079986      -4.902083       0.103000                    
      -0.180769      -5.783544      -6.317297      -0.006000                    
      -0.454506      -5.044959      -5.563962       0.103000                    
       0.060485      -5.277347      -7.251922       0.103000                    
      -1.561906      -6.911605      -6.583366      -0.200000                    
      -5.977268      -4.875832       4.393134      -0.200000                    
      -6.966188      -5.606016       3.074129      -0.006000                    
      -6.310609      -5.936590       2.268623       0.103000                    
      -7.520514      -6.459145       3.465027       0.103000                    
      -7.948232      -4.563575       2.536301      -0.006000                    
      -8.603810      -4.233001       3.341807       0.103000                    
      -7.393909      -3.710454       2.145404       0.103000                    
      -8.937156      -5.293768       1.217297      -0.200000                    
      11.733721       1.613230      -3.403397      -0.200000                    
      11.275154       0.463677      -2.092272      -0.006000                    
      12.030966      -0.317579      -2.012901       0.103000                    
      11.206086       1.000197      -1.146061       0.103000                    
       9.921102      -0.168842      -2.419210      -0.006000                    
       9.165277       0.612409      -2.498581       0.103000                    
       9.990170      -0.705362      -3.365421       0.103000                    
       9.462525      -1.318390      -1.108086      -0.200000                    
       4.833817      -4.094661      -7.624458      -0.200000                    
       4.304607      -2.466959      -8.191364      -0.006000                    
       5.141764      -1.771544      -8.132513       0.103000                    
       3.960730      -2.535447      -9.223361       0.103000                    
       3.162335      -1.965153      -7.306057      -0.006000                    
       2.325170      -2.660563      -7.364909       0.103000                    
       3.506204      -1.896660      -6.274061       0.103000                    
       2.633117      -0.337446      -7.872964      -0.200000                    
       3.839987      -2.263977       6.126751      -0.200000                    
       4.972245      -1.208993       7.051883      -0.006000                    
       5.967184      -1.653997       7.050204       0.103000                    
       5.013663      -0.224189       6.586733       0.103000                    
       4.478254      -1.071225       8.493171      -0.006000                    
       3.483311      -0.626231       8.494850       0.103000                    
       4.436822      -2.056034       8.958322       0.103000                    
       5.610511      -0.016242       9.418303      -0.200000                    
      -0.523338      -2.785249       6.525246      -0.200000                    
       0.310822      -3.318198       8.032243      -0.006000                    
       0.039910      -4.350782       8.252023       0.103000                    
       1.389747      -3.246667       7.895329       0.103000                    
      -0.115618      -2.421021       9.195665      -0.006000                    
       0.155294      -1.388438       8.975884       0.103000                    
      -1.194542      -2.492552       9.332580       0.103000                    
       0.718542      -2.953970      10.702662      -0.200000                    
      -3.957318      -3.895380      -5.863863      -0.200000                    
      -5.725139      -3.984824      -5.520828      -0.006000                    
      -5.945868      -4.910002      -4.988581       0.103000                    
      -6.020040      -3.133387      -4.907573       0.103000                    
      -6.502262      -3.957211      -6.838264      -0.006000                    
      -6.281538      -3.032018      -7.370503       0.103000                    
      -6.207370      -4.808642      -7.451510       0.103000                    
      -8.270092      -4.046649      -6.495220      -0.200000                    
       7.328541      -3.656855      -3.694303      -0.200000                    
       7.370725      -5.459260      -3.715833      -0.006000                    
       8.098846      -5.797098      -4.453155       0.103000                    
       7.653625      -5.828105      -2.730020       0.103000                    
       5.986561      -5.997367      -4.083164      -0.006000                    
       5.258440      -5.659529      -3.345843       0.103000                    
       5.703661      -5.628522      -5.068988       0.103000                    
       6.028745      -7.799771      -4.104695      -0.200000                    
      -4.137115      -8.972629      -2.632775      -0.200000                    
      -2.860908      -9.328901      -3.855579      -0.006000                    
      -3.095812     -10.263655      -4.364491       0.103000                    
      -2.818938      -8.519061      -4.583827       0.103000                    
      -1.506108      -9.456019      -3.156487      -0.006000                    
      -1.271204      -8.521267      -2.647586       0.103000                    
      -1.548074     -10.265850      -2.428241       0.103000                    
      -0.229892      -9.812295      -4.379292      -0.200000                    
      -3.341882      -4.786166       8.476057      -0.200000                    
      -3.210768      -5.416307       6.791839      -0.006000                    
      -4.042633      -6.091128       6.590329       0.103000                    
      -3.239465      -4.583829       6.088920       0.103000                    
      -1.890797      -6.172880       6.631754      -0.006000                    
      -1.058933      -5.498060       6.833254       0.103000                    
      -1.862101      -7.005361       7.334663       0.103000                    
      -1.759698      -6.803026       4.947537      -0.200000                    
       9.817600       5.582815      -0.719066      -0.200000                    
      10.422912       4.623409       0.682358      -0.006000                    
      10.189488       5.146965       1.609367       0.103000                    
       9.943584       3.644548       0.687043       0.103000                    
      11.938045       4.448083       0.563976      -0.006000                    
      12.171469       3.924528      -0.363032       0.103000                    
      12.417377       5.426954       0.559291       0.103000                    
      12.543357       3.488678       1.965401      -0.200000                    
      -4.738255     -11.140739       3.200823      -0.200000                    
      -3.826437      -9.792122       2.425750      -0.006000                    
      -4.527464      -9.040149       2.063753       0.103000                    
      -3.154223      -9.341089       3.155589       0.103000                    
      -3.011666     -10.336445       1.250924      -0.006000                    
      -2.310631     -11.088423       1.612931       0.103000                    
      -3.683880     -10.787477       0.521095       0.103000                    
      -2.099848      -8.987827       0.475851      -0.200000                    
      -6.887044      -6.903264      -2.498488      -0.200000                    
      -6.687256      -7.385362      -0.772642      -0.006000                    
      -5.788566      -7.992830      -0.666530       0.103000                    
      -6.597814      -6.492630      -0.153785       0.103000                    
      -7.905448      -8.195418      -0.325169      -0.006000                    
      -8.804138      -7.587951      -0.431281       0.103000                    
      -7.994895      -9.088159      -0.944025       0.103000                    
      -7.705661      -8.677517       1.400678      -0.200000                    
      -6.161577      10.079885      -0.424165      -0.200000                    
      -6.219782       8.552263       0.531835      -0.006000                    
      -6.117999       7.699388      -0.139104       0.103000                    
      -5.404727       8.544920       1.255430       0.103000                    
      -7.556908       8.463133       1.269758      -0.006000                    
      -7.658686       9.316017       1.940696       0.103000                    
      -8.371959       8.470487       0.546171       0.103000                    
      -7.615103       6.935509       2.225768      -0.200000                    
      -1.255120      10.553801       2.699692      -0.200000                    
      -3.033306      10.851873       2.688089      -0.006000                    
      -3.222231      11.925009       2.713791       0.103000                    
      -3.467130      10.427943       1.782529       0.103000                    
      -3.668758      10.193264       3.913951      -0.006000                    
      -3.479834       9.120131       3.888248       0.103000                    
      -3.234934      10.617195       4.819511       0.103000                    
      -5.446945      10.491338       3.902348      -0.200000                    
       0.513112     -11.793688       0.173117      -0.200000                    
       1.479535     -10.272708       0.232880      -0.006000                    
       2.050936     -10.168518      -0.689418       0.103000                    
       0.809441      -9.420280       0.343666       0.103000                    
       2.438911     -10.324593       1.423388      -0.006000                    
       1.867515     -10.428796       2.345687       0.103000                    
       3.109010     -11.177034       1.312604       0.103000                    
       3.405329      -8.803622       1.483152      -0.200000                    
       3.142152      14.864208       0.784061      -0.200000                    
       2.554847      13.264729       1.373724      -0.006000                    
       1.615914      13.397715       1.911037       0.103000                    
       2.396794      12.599899       0.524621       0.103000                    
       3.596746      12.653342       2.312338      -0.006000                    
       4.535688      12.520350       1.775025       0.103000                    
       3.754799      13.318172       3.161440       0.103000                    
       3.009450      11.053857       2.902001      -0.200000                    
       0.472496      -2.115548     -11.617682      -0.200000                    
       0.383956      -2.569594      -9.874973      -0.006000                    
      -0.029705      -3.573647      -9.781426       0.103000                    
       1.383933      -2.546578      -9.442001       0.103000                    
      -0.514710      -1.577361      -9.134517      -0.006000                    
      -0.101050      -0.573310      -9.228073       0.103000                    
      -1.514696      -1.600373      -9.567488       0.103000                    
      -0.603259      -2.031404      -7.391818      -0.200000                    
     -10.602063       2.758804       4.696234      -0.200000                    
      -9.483481       2.481597       3.309543      -0.006000                    
      -8.561907       3.041450       3.468292       0.103000                    
      -9.254682       1.418657       3.233836       0.103000                    
     -10.149245       2.952775       2.015271      -0.006000                    
     -11.070824       2.392915       1.856534       0.103000                    
     -10.378049       4.015706       2.090980       0.103000                    
      -9.030663       2.675569       0.628581      -0.200000                    
     -11.822239      -6.246244      -1.864492      -0.200000                    