%nprocshared=4                                                                       
%mem=8GB                                                                             
#P pop=chelpg cam-b3lyp/gen scf=qc int=ultrafine charge td(nstates=10)               
                                                                                     
pNA CAM-B3LYP def2-TZVPD Single point - solvent def2-SV(P)                           
                                                                                     
0 1                                                                                  
 C       1.389235       0.000000      -0.000000                                 
 C       0.000000       0.000000      -0.000000                                 
 C      -0.711164       1.193419       0.000000                                 
 C      -0.034074       2.386367       0.000141                                 
 C       1.370482       2.412065       0.000933                                 
 C       2.067428       1.192342       0.000144                                 
 H       1.924301      -0.937208       0.000967                                 
 H      -1.790186       1.173300       0.000962                                 
 H      -0.583208       3.318526      -0.000772                                 
 H       3.149318       1.197759      -0.000767                                 
 N      -0.711160      -1.251627       0.001756                                 
 O      -1.932441      -1.229701       0.002542                                 
 O      -0.067142      -2.289538       0.002483                                 
 N       2.040236       3.590780      -0.024683                                 
 H       1.546357       4.451509       0.132529                                 
 H       3.032458       3.607145       0.132525                                 
Cl      -3.543457       0.318837      -3.588352                                 
 C      -3.070875       1.826988      -2.720518                                 
 H      -3.962011       2.415461      -2.502536                                 
 H      -2.569214       1.567973      -1.788201                                 
 C      -2.122542       2.645001      -3.599067                                 
 H      -1.231399       2.056523      -3.817045                                 
 H      -2.624203       2.904016      -4.531384                                 
Cl      -1.649960       4.153152      -2.731232                                 
Cl       3.796957       5.016202       2.753008                                 
 C       4.164958       3.260492       2.571262                                 
 H       4.352127       2.824748       3.552625                                 
 H       3.317324       2.757618       2.105850                                 
 C       5.405096       3.087731       1.692260                                 
 H       5.217928       3.523474       0.710897                                 
 H       6.252728       3.590596       2.157666                                 
Cl       5.773094       1.332012       1.510508                                 
Cl       1.055378      -4.451183       2.721836                                 
 C      -0.481197      -4.930511       1.909346                                 
 H      -1.102383      -5.490932       2.607927                                 
 H      -1.014599      -4.037306       1.584359                                 
 C      -0.164517      -5.804943       0.694684                                 
 H       0.456671      -5.244529      -0.003886                                 
 H       0.368879      -6.698149       1.019677                                 
Cl      -1.701092      -6.284271      -0.117806                                 
Cl       4.729373       8.779637      -0.834542                                 
 C       3.679024       7.742135      -1.869596                                 
 H       3.240115       8.346511      -2.663340                                 
 H       4.276659       6.943538      -2.308919                                 
 C       2.564094       7.133860      -1.016777                                 
 H       3.002995       6.529489      -0.223037                                 
 H       1.966458       7.932456      -0.577454                                 
Cl       1.513750       6.096359      -2.051837                                 
Cl       4.118464       3.712295      -2.390538                                 
 C       3.410423       2.384419      -3.383686                                 
 H       4.192507       1.926668      -3.989293                                 
 H       2.972568       1.632931      -2.726805                                 
 C       2.325660       2.955083      -4.299104                                 
 H       1.543576       3.412833      -3.693496                                 
 H       2.763515       3.706570      -4.955985                                 
Cl       1.617619       1.627206      -5.292252                                 
                                                                                
       1.823865      -2.618987      -2.747315      -0.200000                    
       0.948607      -3.865723      -3.711930      -0.006000                    
       0.910243      -3.556501      -4.756363       0.103000                    
       1.471398      -4.818901      -3.633937       0.103000                    
      -0.475094      -4.020080      -3.173756      -0.006000                    
      -0.436731      -4.329301      -2.129323       0.103000                    
      -0.997883      -3.066894      -3.251745       0.103000                    
      -1.350356      -5.266810      -4.138360      -0.200000                    
      -4.690439      -3.808422       4.660474      -0.200000                    
      -4.303608      -2.053906       4.509020      -0.006000                    
      -5.084589      -1.466427       4.991617       0.103000                    
      -3.346396      -1.849909       4.988663       0.103000                    
      -4.222647      -1.675493       3.028952      -0.006000                    
      -3.441666      -2.262972       2.546356       0.103000                    
      -5.179855      -1.879490       2.549325       0.103000                    
      -3.835809       0.079018       2.877502      -0.200000                    
       0.836826       8.200945       3.982407      -0.200000                    
       0.279132       7.683976       2.347603      -0.006000                    
       0.020080       8.562687       1.757105       0.103000                    
       1.076389       7.132929       1.848895       0.103000                    
      -0.950361       6.784682       2.489008      -0.006000                    
      -0.691316       5.905968       3.079513       0.103000                    
      -1.747617       7.335721       2.987727       0.103000                    
      -1.508055       6.267705       0.854215      -0.200000                    
      -5.802802      -4.867803       1.203084      -0.200000                    
      -4.782500      -4.052083      -0.039680      -0.006000                    
      -4.800236      -2.974873       0.125342       0.103000                    
      -3.757487      -4.414696       0.036345       0.103000                    
      -5.330730      -4.362951      -1.433665      -0.006000                    
      -5.312995      -5.440163      -1.598687       0.103000                    
      -6.355738      -4.000336      -1.509697       0.103000                    
      -4.310420      -3.547221      -2.676432      -0.200000                    
       2.769439      -6.190612      -1.113580      -0.200000                    
       3.769640      -6.112790       0.384574      -0.006000                    
       3.119240      -6.150797       1.258335       0.103000                    
       4.457833      -6.957696       0.406567       0.103000                    
       4.565985      -4.806660       0.398743      -0.006000                    
       5.216384      -4.768653      -0.475018       0.103000                    
       3.877791      -3.961753       0.376750       0.103000                    
       5.566192      -4.728836       1.896890      -0.200000                    
      -3.682677       4.278268       2.741489      -0.200000                    
      -4.633040       4.625931       1.249219      -0.006000                    
      -4.968286       5.662889       1.265018       0.103000                    
      -4.007162       4.459502       0.372571       0.103000                    
      -5.848310       3.698507       1.190995      -0.006000                    
      -5.513058       2.661544       1.175201       0.103000                    
      -6.474182       3.864931       2.067647       0.103000                    
      -6.798666       4.046165      -0.301270      -0.200000                    
       6.614643      -2.423172       5.320226      -0.200000                    
       5.497638      -1.734869       4.083519      -0.006000                    
       5.956119      -0.857391       3.627720       0.103000                    
       5.300595      -2.482524       3.315320       0.103000                    
       4.181842      -1.332695       4.752340      -0.006000                    
       3.723374      -2.210175       5.208136       0.103000                    
       4.378892      -0.585045       5.520544       0.103000                    
       3.064837      -0.644392       3.515633      -0.200000                    
       0.247914       3.012571       4.054678      -0.200000                    
      -1.210034       2.037490       4.472488      -0.006000                    
      -2.107281       2.629374       4.291930       0.103000                    
      -1.236297       1.139805       3.854876       0.103000                    
      -1.151153       1.638905       5.948312      -0.006000                    
      -0.253921       1.047015       6.128869       0.103000                    
      -1.124903       2.536593       6.565929       0.103000                    
      -2.609107       0.663829       6.366118      -0.200000                    
       6.480992       1.024732      -2.106821      -0.200000                    
       7.442209      -0.496062      -1.987831      -0.006000                    
       7.451313      -0.997064      -2.955725       0.103000                    
       8.463881      -0.258216      -1.691934       0.103000                    
       6.810773      -1.417970      -0.942964      -0.006000                    
       6.801669      -0.916968       0.024929       0.103000                    
       5.789101      -1.655816      -1.238862       0.103000                    
       7.771990      -2.938764      -0.823975      -0.200000                    
       8.910271       7.148950      -3.709207      -0.200000                    
       8.379829       7.011048      -1.991481      -0.006000                    
       9.198124       6.617239      -1.388777       0.103000                    
       8.094650       7.994839      -1.618931       0.103000                    
       7.180644       6.065341      -1.902466      -0.006000                    
       6.362349       6.459149      -2.505170       0.103000                    
       7.465840       5.081555      -2.275013       0.103000                    
       6.650203       5.927439      -0.184741      -0.200000                    
      -3.772901       6.977569      -2.816869      -0.200000                    
      -3.167586       8.270887      -1.716024      -0.006000                    
      -3.601608       9.227702      -2.005980       0.103000                    
      -3.452967       8.038166      -0.690193       0.103000                    
      -1.643096       8.352231      -1.814674      -0.006000                    
      -1.209081       7.395413      -1.524710       0.103000                    
      -1.357715       8.584951      -2.840505       0.103000                    
      -1.037781       9.645549      -0.713830      -0.200000                    
      -0.737883      -1.824163       4.462429      -0.200000                    
       0.310462      -2.444586       5.791683      -0.006000                    
       0.418666      -3.524848       5.695316       0.103000                    
       1.291682      -1.974050       5.730604       0.103000                    
      -0.329318      -2.115149       7.141687      -0.006000                    
      -0.437515      -1.034892       7.238058       0.103000                    
      -1.310521      -2.585680       7.202768       0.103000                    
       0.719033      -2.735569       8.470934      -0.200000                    
      -8.533541      -0.779966      -4.895751      -0.200000                    
      -7.639184       0.025316      -3.553160      -0.006000                    
      -6.726783       0.476249      -3.943141       0.103000                    
      -8.266760       0.798918      -3.110843       0.103000                    
      -7.279709      -1.010670      -2.486437      -0.006000                    
      -8.192108      -1.461611      -2.096444       0.103000                    
      -6.652140      -1.784275      -2.928747       0.103000                    
      -6.385346      -0.205394      -1.143843      -0.200000                    
       8.459990       2.783686       3.410332      -0.200000                    
       9.210570       3.626045       2.003944      -0.006000                    
       8.696705       4.571308       1.829759       0.103000                    
      10.262755       3.817563       2.214081       0.103000                    
       9.091917       2.744817       0.759057      -0.006000                    
       9.605775       1.799560       0.933238       0.103000                    
       8.039724       2.553305       0.548916       0.103000                    
       9.842501       3.587185      -0.647326      -0.200000                    
       4.662479      -6.395753      -4.422348      -0.200000                    
       4.877879      -4.702079      -3.842729      -0.006000                    
       4.320307      -4.560953      -2.916899       0.103000                    
       5.935759      -4.511168      -3.662737       0.103000                    
       4.358132      -3.730072      -4.903601      -0.006000                    
       4.915699      -3.871185      -5.829430       0.103000                    
       3.300252      -3.920983      -5.083593       0.103000                    
       4.573527      -2.036386      -4.323981      -0.200000                    
       0.165307       4.818890      -6.863420      -0.200000                    
      -0.465970       6.256267      -5.976634      -0.006000                    
      -0.858412       5.943151      -5.009233       0.103000                    
       0.340453       6.974051      -5.826774       0.103000                    
      -1.583444       6.908638      -6.792732      -0.006000                    
      -1.190995       7.221757      -7.760141       0.103000                    
      -2.389866       6.190854      -6.942592       0.103000                    
      -2.214715       8.346018      -5.905954      -0.200000                    
       4.095476       6.019889      -5.162142      -0.200000                    
       3.802982       7.522323      -6.115038      -0.006000                    
       3.151272       7.296513      -6.958975       0.103000                    
       3.328558       8.269617      -5.479102       0.103000                    
       5.136220       8.065858      -6.632155      -0.006000                    
       5.787926       8.291679      -5.788216       0.103000                    
       5.610644       7.318563      -7.268090       0.103000                    
       4.843719       9.568296      -7.585054      -0.200000                    
      -1.069104      -2.209738      -7.043864      -0.200000                    
      -1.235697      -0.417330      -6.941835      -0.006000                    
      -1.002226      -0.087536      -5.929569       0.103000                    
      -0.547947       0.052350      -7.644914       0.103000                    
      -2.670992      -0.018009      -7.289383      -0.006000                    
      -2.904466      -0.347798      -8.301638       0.103000                    
      -3.358739      -0.487681      -6.586300       0.103000                    
      -2.837582       1.774406      -7.187349      -0.200000                    
       4.390996       8.369825       7.767193      -0.200000                    
       4.960885       8.092159       6.079317      -0.006000                    
       5.962718       8.504868       5.961308       0.103000                    
       4.982082       7.021912       5.874160       0.103000                    
       4.008020       8.779822       5.099775      -0.006000                    
       3.006177       8.367113       5.217775       0.103000                    
       3.986809       9.850073       5.304935       0.103000                    
       4.577896       8.502160       3.411903      -0.200000                    
      -5.947294       3.504362       5.354053      -0.200000                    
      -6.248348       1.757412       5.024787      -0.006000                    
      -6.434654       1.614886       3.960396       0.103000                    
      -5.375910       1.175755       5.322248       0.103000                    
      -7.467662       1.290932       5.822284      -0.006000                    
      -7.281364       1.433463       6.886671       0.103000                    
      -8.340101       1.872588       5.524823       0.103000                    
      -7.768724      -0.456013       5.493013      -0.200000                    
       4.766204      -8.219064       4.300737      -0.200000                    
       4.587251      -6.723394       5.291631      -0.006000                    
       4.730407      -6.965582       6.344618       0.103000                    
       5.332855      -5.991025       4.982380       0.103000                    
       3.186967      -6.141669       5.088537      -0.006000                    
       3.043816      -5.899479       4.035543       0.103000                    
       2.441363      -6.874039       5.397788       0.103000                    
       3.008019      -4.645998       6.079423      -0.200000                    
       7.990197       5.243423      -6.242549      -0.200000                    
       8.909995       3.774723      -5.744694      -0.006000                    
       8.672399       2.951306      -6.418091       0.103000                    
       9.978930       3.983092      -5.788187       0.103000                    
       8.523507       3.391313      -4.315004      -0.006000                    
       8.761100       4.214736      -3.641594       0.103000                    
       7.454574       3.182952      -4.271506       0.103000                    
       9.443316       1.922616      -3.817140      -0.200000                    
       0.277356       8.571167       8.123131      -0.200000                    
       0.056950       6.965463       7.333220      -0.006000                    
       0.716618       6.891930       6.468722       0.103000                    
       0.298683       6.174714       8.043303       0.103000                    
      -1.396276       6.815683       6.879271      -0.006000                    
      -2.055944       6.889216       7.743769       0.103000                    
      -1.638019       7.606422       6.169191       0.103000                    
      -1.616675       5.209974       6.089365      -0.200000                    
       2.183658      10.849915       0.913039      -0.200000                    
       3.779096      11.689795       0.922971      -0.006000                    
       3.799824      12.421403       1.730608       0.103000                    
       4.573669      10.959148       1.073785       0.103000                    
       3.988917      12.401731      -0.414755      -0.006000                    
       3.968190      11.670124      -1.222393       0.103000                    
       3.194351      13.132373      -0.565566       0.103000                    
       5.584363      13.241608      -0.404819      -0.200000                    
      12.827359      -0.918841       4.425496      -0.200000                    
      11.404388      -1.471393       3.465968      -0.006000                    
      11.615978      -1.356730       2.402947       0.103000                    
      11.202749      -2.519759       3.685511       0.103000                    
      10.181927      -0.629244       3.835762      -0.006000                    
       9.970331      -0.743910       4.898791       0.103000                    
      10.383557       0.419111       3.616221       0.103000                    
       8.758943      -1.181793       2.876237      -0.200000                    
       5.660138       2.609047      -6.145166      -0.200000                    
       4.795313       2.020434      -7.613704      -0.006000                    
       5.515094       1.842127      -8.412499       0.103000                    
       4.273390       1.092377      -7.380760       0.103000                    
       3.782989       3.074452      -8.066084      -0.006000                    
       3.063208       3.252759      -7.267289       0.103000                    
       4.304920       4.002504      -8.299026       0.103000                    
       2.918164       2.485838      -9.534621      -0.200000                    
       7.801164       6.201006       4.362055      -0.200000                    
       8.466727       5.263379       5.750845      -0.006000                    
       7.778396       4.458935       6.009640       0.103000                    
       9.432594       4.840625       5.474563       0.103000                    
       8.642197       6.190723       6.954838      -0.006000                    
       9.330535       6.995162       6.696048       0.103000                    
       7.676330       6.613478       7.231121       0.103000                    
       9.307759       5.253097       8.343629      -0.200000                    
      -7.062257      -6.186833      -4.676980      -0.200000                    
      -6.466330      -4.662796      -5.433982      -0.006000                    
      -7.195967      -4.309139      -6.162351       0.103000                    
      -6.325272      -3.905030      -4.663342       0.103000                    
      -5.133615      -4.929432      -6.136216      -0.006000                    
      -4.403974      -5.283080      -5.407842       0.103000                    
      -5.274672      -5.687196      -6.906855       0.103000                    
      -4.537687      -3.405393      -6.893217      -0.200000                    
      -3.276062      -7.370086       4.855760      -0.200000                    
      -4.933827      -7.339243       4.147399      -0.006000                    
      -5.672174      -7.376188       4.948290       0.103000                    
      -5.066571      -6.422816       3.572510       0.103000                    
      -5.118233      -8.548300       3.228400      -0.006000                    
      -4.379878      -8.511360       2.427514       0.103000                    
      -4.985492      -9.464735       3.803284       0.103000                    
      -6.775998      -8.517457       2.520039      -0.200000                    
       1.074013      -8.926627       2.902702      -0.200000                    
      -0.644132      -9.280787       3.319074      -0.006000                    
      -0.828767      -9.013050       4.359326       0.103000                    
      -1.302024      -8.700701       2.672065       0.103000                    
      -0.919947     -10.772351       3.120306      -0.006000                    
      -0.735310     -11.040094       2.080040       0.103000                    
      -0.262053     -11.352444       3.767302       0.103000                    
      -2.638092     -11.126512       3.536678      -0.200000                    
     -11.170633       1.064606      -1.525395      -0.200000                    
      -9.707080       1.264122      -0.491396      -0.006000                    
      -9.023943       0.432554      -0.663891       0.103000                    
      -9.209838       2.201089      -0.742011       0.103000                    
     -10.121980       1.285555       0.980933      -0.006000                    
     -10.805116       2.117123       1.153428       0.103000                    
     -10.619215       0.348591       1.231540       0.103000                    
      -8.658425       1.485071       2.014932      -0.200000                    
       1.683039      -5.151850      -7.860097      -0.200000                    
      -0.108698      -5.235038      -7.676242      -0.006000                    
      -0.396527      -4.800273      -6.719124       0.103000                    
      -0.583354      -4.679824      -8.485196       0.103000                    
      -0.559339      -6.696043      -7.728204      -0.006000                    
      -0.271507      -7.130800      -8.685316       0.103000                    
      -0.084680      -7.251249      -6.919244       0.103000                    
      -2.351076      -6.779233      -7.544348      -0.200000                    
       0.598122      10.184788      -4.275478      -0.200000                    
       1.425467      11.770080      -4.044694      -0.006000                    
       2.306316      11.632609      -3.417681       0.103000                    
       1.727407      12.167109      -5.013779       0.103000                    
       0.466858      12.751848      -3.368246      -0.006000                    
      -0.413985      12.889313      -3.995255       0.103000                    
       0.164920      12.354827      -2.399155       0.103000                    
       1.294201      14.337140      -3.137462      -0.200000                    
       8.340963       9.639849       5.198194      -0.200000                    
       8.333037      10.597357       3.670418      -0.006000                    
       7.432965      11.210744       3.630450       0.103000                    
       9.212716      11.240160       3.639636       0.103000                    
       8.354944       9.646250       2.472398      -0.006000                    
       9.255011       9.032860       2.512372       0.103000                    
       7.475259       9.003445       2.503188       0.103000                    
       8.347020      10.603750       0.944633      -0.200000                    
      -5.924185       8.077962      -6.237260      -0.200000                    
      -5.648382       6.396490      -5.647769      -0.006000                    
      -4.577659       6.213993      -5.557249       0.103000                    
      -6.122296       6.270128      -4.674425       0.103000                    
      -6.252353       5.402311      -6.641330      -0.006000                    
      -7.323076       5.584808      -6.731851       0.103000                    
      -5.778439       5.528672      -7.614674       0.103000                    
      -5.976550       3.720838      -6.051839      -0.200000                    
       7.652347      -1.902078      -5.569331      -0.200000                    
       7.145036      -0.837437      -6.933178      -0.006000                    
       6.408537      -0.117014      -6.577514       0.103000                    
       8.013765      -0.306965      -7.322893       0.103000                    
       6.528484      -1.690188      -8.043632      -0.006000                    
       7.264981      -2.410603      -8.399307       0.103000                    
       5.659752      -2.220651      -7.653927       0.103000                    
       6.021178      -0.625544      -9.407486      -0.200000                    
      -8.101545       7.621871       1.985876      -0.200000                    
      -7.133094       9.125085       1.754719      -0.006000                    
      -7.738870       9.991983       2.018280       0.103000                    
      -6.250418       9.090698       2.393175       0.103000                    
      -6.699576       9.232415       0.291534      -0.006000                    
      -6.093801       8.365518       0.027974       0.103000                    
      -7.582253       9.266803      -0.346922       0.103000                    
      -5.731124      10.735629       0.060377      -0.200000                    
       1.381977      -8.413226      -4.482833      -0.200000                    
       2.487737      -8.523482      -5.902710      -0.006000                    
       1.943182      -8.924815      -6.757304       0.103000                    
       2.866499      -7.530991      -6.146489       0.103000                    
       3.659641      -9.447366      -5.565868      -0.006000                    
       4.204191      -9.046020      -4.711272       0.103000                    
       3.280879     -10.439857      -5.322089       0.103000                    
       4.765403      -9.557615      -6.985740      -0.200000                    
       3.972713      -9.833468      -0.075969      -0.200000                    