%nprocshared=4                                                                       
%mem=8GB                                                                             
#P pop=chelpg cam-b3lyp/gen scf=qc int=ultrafine charge td(nstates=10)               
                                                                                     
pNA CAM-B3LYP def2-TZVPD Single point - solvent def2-SV(P)                           
                                                                                     
0 1                                                                                  
 C       1.389235       0.000000      -0.000000                                 
 C       0.000000       0.000000      -0.000000                                 
 C      -0.711164       1.193419       0.000000                                 
 C      -0.034074       2.386367       0.000141                                 
 C       1.370482       2.412065       0.000933                                 
 C       2.067428       1.192342       0.000144                                 
 H       1.924301      -0.937208       0.000967                                 
 H      -1.790186       1.173300       0.000962                                 
 H      -0.583208       3.318526      -0.000772                                 
 H       3.149318       1.197759      -0.000767                                 
 N      -0.711160      -1.251627       0.001756                                 
 O      -1.932441      -1.229701       0.002542                                 
 O      -0.067142      -2.289538       0.002483                                 
 N       2.040236       3.590780      -0.024683                                 
 H       1.546357       4.451509       0.132529                                 
 H       3.032458       3.607145       0.132525                                 
Cl      -4.274454       1.544126       0.903340                                 
 C      -4.910139      -0.115799       0.600927                                 
 H      -5.938014      -0.052081       0.244046                                 
 H      -4.294295      -0.609635      -0.150631                                 
 C      -4.871269      -0.921418       1.900884                                 
 H      -3.843389      -0.985143       2.257760                                 
 H      -5.487112      -0.427583       2.652443                                 
Cl      -5.506962      -2.581347       1.598468                                 
Cl      -2.464918      -3.370604       3.433420                                 
 C      -0.699064      -3.006553       3.448520                                 
 H      -0.178891      -3.753918       4.047513                                 
 H      -0.315013      -3.026394       2.428701                                 
 C      -0.469453      -1.619831       4.052405                                 
 H      -0.989635      -0.872470       3.453410                                 
 H      -0.853513      -1.599994       5.072222                                 
Cl       1.296387      -1.255779       4.067509                                 
Cl      -4.618902       5.295374       3.736935                                 
 C      -3.492627       4.988747       2.362755                                 
 H      -3.208810       3.936472       2.353125                                 
 H      -3.986776       5.240608       1.424497                                 
 C      -2.240714       5.852520       2.527020                                 
 H      -2.524526       6.904789       2.536644                                 
 H      -1.746560       5.600646       3.465279                                 
Cl      -1.114439       5.545886       1.152847                                 
Cl       5.214844       4.111559      -1.267457                                 
 C       6.925997       4.676022      -1.202322                                 
 H       6.978811       5.714780      -1.528074                                 
 H       7.296535       4.596155      -0.180427                                 
 C       7.784544       3.808622      -2.124747                                 
 H       7.731721       2.769861      -1.798998                                 
 H       7.414005       3.888489      -3.146641                                 
Cl       9.495692       4.373091      -2.059605                                 
Cl      -4.198675      -1.150592      -3.624386                                 
 C      -2.705067      -0.460087      -4.361401                                 
 H      -2.432080      -1.041244      -5.242105                                 
 H      -2.887429       0.574767      -4.650875                                 
 C      -1.563902      -0.510828      -3.343791                                 
 H      -1.836888       0.070329      -2.463088                                 
 H      -1.381534      -1.545687      -3.054323                                 
Cl      -0.070290       0.179678      -4.080820                                 
                                                                                
       0.975149       7.230219      -1.508327      -0.200000                    
       2.770815       7.367694      -1.420928      -0.006000                    
       3.040091       8.254718      -0.847661       0.103000                    
       3.179994       6.482330      -0.934451       0.103000                    
       3.342897       7.482109      -2.835160      -0.006000                    
       3.073627       6.595079      -3.408432       0.103000                    
       2.933718       8.367473      -3.321637       0.103000                    
       5.138569       7.619578      -2.747766      -0.200000                    
       3.919921      -4.576877       1.473291      -0.200000                    
       4.656005      -2.952903       1.741108      -0.006000                    
       4.297193      -2.260966       0.979241       0.103000                    
       4.375276      -2.584710       2.727812       0.103000                    
       6.179324      -3.062649       1.652767      -0.006000                    
       6.538139      -3.754570       2.414637       0.103000                    
       6.460052      -3.430836       0.666056       0.103000                    
       6.915408      -1.438675       1.920585      -0.200000                    
       1.918573      -5.511244      -3.761123      -0.200000                    
       2.595269      -3.847215      -3.606270      -0.006000                    
       3.430251      -3.728583      -4.296668       0.103000                    
       1.821639      -3.116675      -3.842416       0.103000                    
       3.083793      -3.626693      -2.173411      -0.006000                    
       2.248817      -3.745338      -1.483012       0.103000                    
       3.857424      -4.357240      -1.937257       0.103000                    
       3.760495      -1.962678      -2.018557      -0.200000                    
       3.428901       2.007509       3.101794      -0.200000                    
       2.127290       3.112260       3.681592      -0.006000                    
       2.050639       3.967591       3.010406       0.103000                    
       1.177669       2.577631       3.699085       0.103000                    
       2.463279       3.600106       5.092088      -0.006000                    
       2.539938       2.744785       5.763270       0.103000                    
       3.412899       4.134741       5.074588       0.103000                    
       1.161667       4.704862       5.671878      -0.200000                    
       3.181517       3.732447      -4.351909      -0.200000                    
       4.699481       2.785692      -4.576517      -0.006000                    
       4.963092       2.766815      -5.633928       0.103000                    
       5.505445       3.250936      -4.009144       0.103000                    
       4.486352       1.354809      -4.079036      -0.006000                    
       4.222747       1.373681      -3.021631       0.103000                    
       3.680390       0.889571      -4.646416       0.103000                    
       6.004317       0.408054      -4.303644      -0.200000                    
      -4.364794      -5.985639      -0.206970      -0.200000                    
      -2.656933      -5.576789       0.201575      -0.006000                    
      -2.310572      -4.772183      -0.446945       0.103000                    
      -2.598672      -5.256042       1.241615       0.103000                    
      -1.774799      -6.810104      -0.001325      -0.006000                    
      -2.121156      -7.614698       0.647205       0.103000                    
      -1.833051      -7.130847      -1.041361       0.103000                    
      -0.066935      -6.401237       0.407223      -0.200000                    
       8.293296       5.357501       5.424684      -0.200000                    
       6.925906       5.805008       4.338021      -0.006000                    
       5.980463       5.598841       4.839554       0.103000                    
       6.985588       6.866180       4.096673       0.103000                    
       7.008710       4.984156       3.049719      -0.006000                    
       7.954153       5.190324       2.548186       0.103000                    
       6.949029       3.922977       3.291075       0.103000                    
       5.641321       5.431664       1.963056      -0.200000                    
       0.397254       6.696741      -4.856780      -0.200000                    
      -0.141919       5.029503      -4.431923      -0.006000                    
      -0.107097       4.398712      -5.320096       0.103000                    
       0.517178       4.617945      -3.667656       0.103000                    
      -1.574399       5.077589      -3.897108      -0.006000                    
      -1.609222       5.708380      -3.008936       0.103000                    
      -2.233502       5.489153      -4.661370       0.103000                    
      -2.113578       3.410357      -3.472246      -0.200000                    
      -2.430347       1.689571       3.737362      -0.200000                    
      -3.390232       1.619600       5.262048      -0.006000                    
      -3.038376       2.389320       5.948841       0.103000                    
      -4.443319       1.787260       5.036707       0.103000                    
      -3.220498       0.243628       5.908782      -0.006000                    
      -3.572353      -0.526092       5.221989       0.103000                    
      -2.167411       0.075968       6.134122       0.103000                    
      -4.180373       0.173654       7.433478      -0.200000                    
       1.340936       9.638856       6.651321      -0.200000                    
       1.440578       8.237149       5.521645      -0.006000                    
       2.407884       7.747614       5.634083       0.103000                    
       0.645363       7.527995       5.751136       0.103000                    
       1.283521       8.730292       4.082022      -0.006000                    
       0.316221       9.219821       3.969578       0.103000                    
       2.078741       9.439446       3.852517       0.103000                    
       1.383163       7.328586       2.952346      -0.200000                    
      -5.528589       4.941171      -1.643067      -0.200000                    
      -5.620030       4.525877      -3.395238      -0.006000                    
      -6.453093       5.059670      -3.852399       0.103000                    
      -4.690474       4.813852      -3.886124       0.103000                    
      -5.833188       3.019103      -3.551718      -0.006000                    
      -5.000124       2.485302      -3.094549       0.103000                    
      -6.762735       2.731131      -3.060828       0.103000                    
      -5.924619       2.603812      -5.303885      -0.200000                    
       6.425583      -4.710743      -3.424204      -0.200000                    
       7.649942      -3.703148      -2.565973      -0.006000                    
       7.790450      -4.084647      -1.554691       0.103000                    
       8.596529      -3.743895      -3.104702       0.103000                    
       7.162916      -2.254384      -2.500782      -0.006000                    
       7.022408      -1.872885      -3.512064       0.103000                    
       6.216328      -2.213638      -1.962054       0.103000                    
       8.387275      -1.246789      -1.642551      -0.200000                    
      -2.928890       8.023248      -2.064174      -0.200000                    
      -2.694338       9.433567      -0.965589      -0.006000                    
      -1.859820      10.037278      -1.322068       0.103000                    
      -3.600899      10.038487      -0.951885       0.103000                    
      -2.393960       8.933836       0.448744      -0.006000                    
      -3.228478       8.330131       0.805216       0.103000                    
      -1.487391       8.328919       0.435043       0.103000                    
      -2.159409      10.344162       1.547322      -0.200000                    
       7.427732       8.785339       2.339292      -0.200000                    
       6.020894       9.798439       1.844074      -0.006000                    
       5.908486      10.629597       2.540114       0.103000                    
       6.187706      10.185870       0.839072       0.103000                    
       4.749767       8.947327       1.857451      -0.006000                    
       4.862175       8.116168       1.161411       0.103000                    
       4.582955       8.559896       2.862453       0.103000                    
       3.342928       9.960426       1.362233      -0.200000                    
      -7.550445      -1.873278      -1.169148      -0.200000                    
      -7.123469      -3.612830      -1.375243      -0.006000                    
      -6.078416      -3.697906      -1.672830       0.103000                    
      -7.277245      -4.139014      -0.433211       0.103000                    
      -8.012680      -4.231632      -2.455391      -0.006000                    
      -9.057742      -4.146560      -2.157807       0.103000                    
      -7.858919      -3.705446      -3.397420       0.103000                    
      -7.585704      -5.971183      -2.661486      -0.200000                    
      -5.413590      -6.773306      -5.041502      -0.200000                    
      -3.628950      -6.517603      -5.018785      -0.006000                    
      -3.146403      -7.365074      -4.532083       0.103000                    
      -3.261489      -6.427849      -6.040964       0.103000                    
      -3.307184      -5.236252      -4.247440      -0.006000                    
      -3.789725      -4.388794      -4.734141       0.103000                    
      -3.674653      -5.326016      -3.225257       0.103000                    
      -1.522551      -4.980559      -4.224719      -0.200000                    
      -0.857089      -2.293602      -7.445635      -0.200000                    
       0.732577      -2.427769      -6.605429      -0.006000                    
       0.579147      -2.380594      -5.527395       0.103000                    
       1.201879      -3.376725      -6.864670       0.103000                    
       1.638921      -1.275216      -7.041889      -0.006000                    
       1.792351      -1.322391      -8.119923       0.103000                    
       1.169619      -0.326260      -6.782648       0.103000                    
       3.228595      -1.409380      -6.201680      -0.200000                    
       5.096217      -7.750429       4.294476      -0.200000                    
       3.609318      -7.307122       5.212915      -0.006000                    
       2.926654      -8.156549       5.231449       0.103000                    
       3.879652      -7.035613       6.233276       0.103000                    
       2.925714      -6.118926       4.533745      -0.006000                    
       3.608387      -5.269494       4.515214       0.103000                    
       2.655381      -6.390436       3.513384       0.103000                    
       1.438819      -5.675603       5.452186      -0.200000                    
      -7.094845      -6.709237       3.686703      -0.200000                    
      -6.225931      -5.179126       4.079973      -0.006000                    
      -5.566946      -5.343996       4.932331       0.103000                    
      -5.635525      -4.864806       3.219415       0.103000                    
      -7.242762      -4.089613       4.425470      -0.006000                    
      -7.901748      -3.924744       3.573112       0.103000                    
      -7.833168      -4.403934       5.286028       0.103000                    
      -6.373848      -2.559503       4.818740      -0.200000                    
       9.180120       1.573938       0.891596      -0.200000                    
       9.729512       1.240904       2.576274      -0.006000                    
       9.641701       2.148439       3.173431       0.103000                    
       9.110116       0.457318       3.012495       0.103000                    
      11.189377       0.783981       2.555615      -0.006000                    
      11.277189      -0.123554       1.958458       0.103000                    
      11.808782       1.567570       2.119398       0.103000                    
      11.738782       0.450945       4.240291      -0.200000                    
       5.065458       0.283771       6.035578      -0.200000                    
       5.123774      -1.008026       7.292079      -0.006000                    
       6.078869      -1.529769       7.233049       0.103000                    
       5.014759      -0.559856       8.279619       0.103000                    
       3.984993      -2.001672       7.055082      -0.006000                    
       3.029906      -1.479925       7.114114       0.103000                    
       4.094013      -2.449848       6.067535       0.103000                    
       4.043309      -3.293469       8.311583      -0.200000                    
      -6.669398      10.086343      -0.841616      -0.200000                    
      -7.405519       8.523983      -0.323937      -0.006000                    
      -8.346523       8.718229       0.190547       0.103000                    
      -7.591474       7.901928      -1.199395       0.103000                    
      -6.447815       7.797948       0.622699      -0.006000                    
      -5.506825       7.603704       0.108217       0.103000                    
      -6.261860       8.420003       1.498157       0.103000                    
      -7.183936       6.235588       1.140377      -0.200000                    
       3.938736      11.573645      -2.086006      -0.200000                    
       2.161046      11.809251      -2.273711      -0.006000                    
       1.972989      12.720704      -2.841014       0.103000                    
       1.735255      10.957056      -2.803256       0.103000                    
       1.513513      11.926121      -0.892627      -0.006000                    
       1.701571      11.014668      -0.325323       0.103000                    
       1.939300      12.778313      -0.363098       0.103000                    
      -0.264186      12.161730      -1.080341      -0.200000                    
     -10.364613       3.774404       0.798585      -0.200000                    
      -9.421638       2.598341       1.787787      -0.006000                    
      -8.478495       3.052516       2.091385       0.103000                    
      -9.995541       2.325655       2.673357       0.103000                    
      -9.139396       1.344692       0.957712      -0.006000                    
     -10.082546       0.890512       0.654110       0.103000                    
      -8.565493       1.617386       0.072134       0.103000                    
      -8.196420       0.168629       1.946913      -0.200000                    
      -0.017539      -1.541643       7.918621      -0.200000                    
      -1.317895      -2.652420       8.489652      -0.006000                    
      -0.905292      -3.351905       9.216578       0.103000                    
      -2.113795      -2.071414       8.955379       0.103000                    
      -1.883877      -3.429360       7.299538      -0.006000                    
      -2.296489      -2.729879       6.572608       0.103000                    
      -1.087977      -4.010372       6.833817       0.103000                    
      -3.184242      -4.540140       7.870564      -0.200000                    
      -1.949697      -8.785031       7.149037      -0.200000                    
      -2.443338      -8.595205       5.425352      -0.006000                    
      -1.564608      -8.671051       4.785027       0.103000                    
      -3.153672      -9.378835       5.162199       0.103000                    
      -3.099074      -7.226856       5.230431      -0.006000                    
      -3.977804      -7.151011       5.870756       0.103000                    
      -2.388741      -6.443227       5.493584       0.103000                    
      -3.592710      -7.037036       3.506740      -0.200000                    
      10.461056       7.555406      -1.281637      -0.200000                    
       9.617138       9.106157      -1.647560      -0.006000                    
       9.261624       9.554316      -0.719826       0.103000                    
      10.309257       9.789445      -2.139534       0.103000                    
       8.427688       8.833999      -2.570327      -0.006000                    
       8.783195       8.385845      -3.498056       0.103000                    
       7.735563       8.150717      -2.078348       0.103000                    
       7.583773      10.384761      -2.936241      -0.200000                    
      -0.061097       6.268305       8.319397      -0.200000                    
      -1.540864       5.708350       7.454743      -0.006000                    
      -2.037954       6.562129       6.994409       0.103000                    
      -1.261564       4.990893       6.683266       0.103000                    
      -2.491637       5.041382       8.450492      -0.006000                    
      -1.994549       4.187611       8.910819       0.103000                    
      -2.770947       5.758836       9.221966       0.103000                    
      -3.971413       4.481431       7.585828      -0.200000                    
       2.802528      -8.532044      -4.790968      -0.200000                    
       4.173351      -8.210541      -3.664730      -0.006000                    
       5.074936      -8.692666      -4.042406       0.103000                    
       4.339276      -7.135824      -3.591409       0.103000                    
       3.838220      -8.769799      -2.280785      -0.006000                    
       2.936643      -8.287671      -1.903106       0.103000                    
       3.672295      -9.844524      -2.354099       0.103000                    
       5.209043      -8.448297      -1.154546      -0.200000                    
       1.262696       9.924790      -5.618242      -0.200000                    
      -0.374920      10.668001      -5.747750      -0.006000                    
      -0.483093      11.443740      -4.989804       0.103000                    
      -0.497580      11.107303      -6.737650       0.103000                    
      -1.441434       9.592701      -5.531914      -0.006000                    
      -1.333260       8.816962      -6.289861       0.103000                    
      -1.318782       9.153395      -4.542016       0.103000                    
      -3.079057      10.335907      -5.661425      -0.200000                    
      12.707353       3.561381       0.524574      -0.200000                    
      11.995633       5.141365       1.022555      -0.006000                    
      12.766170       5.757238       1.486187       0.103000                    
      11.599087       5.653845       0.146170       0.103000                    
      10.865981       4.898424       2.025156      -0.006000                    
      10.095448       4.282551       1.561511       0.103000                    
      11.262532       4.385944       2.901528       0.103000                    
      10.154267       6.478408       2.523123      -0.200000                    
       1.595375     -10.107302       2.733505      -0.200000                    
       1.877240     -10.406848       0.978004      -0.006000                    
       2.463050      -9.588785       0.559055       0.103000                    
       2.419094     -11.344048       0.851501       0.103000                    
       0.532795     -10.493909       0.253248      -0.006000                    
      -0.053015     -11.311965       0.672190       0.103000                    
      -0.009058      -9.556708       0.379751       0.103000                    
       0.814652     -10.793458      -1.502255      -0.200000                    
      -4.760753      -2.118868      -9.089069      -0.200000                    
      -4.054497      -0.872132      -7.994652      -0.006000                    
      -4.850094      -0.405117      -7.414262       0.103000                    
      -3.340551      -1.343536      -7.319385       0.103000                    
      -3.340054       0.192823      -8.828792      -0.006000                    
      -2.544452      -0.274191      -9.409195       0.103000                    
      -4.053986       0.664225      -9.504061       0.103000                    
      -2.633793       1.439560      -7.734388      -0.200000                    
       1.981360       2.276927      11.150164      -0.200000                    
       1.477190       1.844402       9.473944      -0.006000                    
       2.181588       2.272116       8.760626       0.103000                    
       1.464451       0.759848       9.366566       0.103000                    
       0.077630       2.399595       9.203141      -0.006000                    
      -0.626768       1.971882       9.916458       0.103000                    
       0.090369       3.484157       9.310513       0.103000                    
      -0.426541       1.967078       7.526915      -0.200000                    
       6.298919       7.849688      -6.225834      -0.200000                    
       5.157617       9.211926      -6.530185      -0.006000                    
       5.494426       9.781895      -7.395987       0.103000                    
       4.160683       8.815148      -6.721539       0.103000                    
       5.115509      10.125563      -5.303851      -0.006000                    
       4.778708       9.555600      -4.438047       0.103000                    
       6.112442      10.522341      -5.112498       0.103000                    
       3.974211      11.487796      -5.608209      -0.200000                    
      -7.142898       9.317942       6.179417      -0.200000                    
      -5.538126       8.502137       6.078937      -0.006000                    
      -5.077583       8.482889       7.066609       0.103000                    
      -5.670859       7.481696       5.719738       0.103000                    
      -4.635689       9.269575       5.110944      -0.006000                    
      -5.096232       9.288823       4.123271       0.103000                    
      -4.502948      10.290021       5.470145       0.103000                    
      -3.030918       8.453770       5.010464      -0.200000                    
      -0.715336      -7.836831      -6.159631      -0.200000                    
       0.577169      -6.984284      -7.083526      -0.006000                    
       1.227888      -6.450992      -6.390627       0.103000                    
       1.162735      -7.711903      -7.645318       0.103000                    
      -0.061566      -5.987326      -8.052271      -0.006000                    
      -0.712291      -6.520611      -8.745164       0.103000                    
      -0.647141      -5.259704      -7.490489       0.103000                    
       1.230938      -5.134779      -8.976167      -0.200000                    
       8.411375      -5.624583       1.041459      -0.200000                    
       8.102637      -7.376180       1.337317      -0.006000                    
       7.424966      -7.488046       2.183591       0.103000                    
       7.652588      -7.820999       0.449899       0.103000                    
       9.424349      -8.081852       1.646344      -0.006000                    
      10.102019      -7.969986       0.800069       0.103000                    
       9.874397      -7.637033       2.533762       0.103000                    
       9.115616      -9.833454       1.942196      -0.200000                    
      -0.218598       4.209620      -8.222842      -0.200000                    