%nprocshared=4                                                                       
%mem=8GB                                                                             
#P pop=chelpg cam-b3lyp/gen scf=qc int=ultrafine charge td(nstates=10)               
                                                                                     
pNA CAM-B3LYP def2-TZVPD Single point - solvent def2-SV(P)                           
                                                                                     
0 1                                                                                  
 C       1.389235       0.000000      -0.000000                                 
 C       0.000000       0.000000      -0.000000                                 
 C      -0.711164       1.193419       0.000000                                 
 C      -0.034074       2.386367       0.000141                                 
 C       1.370482       2.412065       0.000933                                 
 C       2.067428       1.192342       0.000144                                 
 H       1.924301      -0.937208       0.000967                                 
 H      -1.790186       1.173300       0.000962                                 
 H      -0.583208       3.318526      -0.000772                                 
 H       3.149318       1.197759      -0.000767                                 
 N      -0.711160      -1.251627       0.001756                                 
 O      -1.932441      -1.229701       0.002542                                 
 O      -0.067142      -2.289538       0.002483                                 
 N       2.040236       3.590780      -0.024683                                 
 H       1.546357       4.451509       0.132529                                 
 H       3.032458       3.607145       0.132525                                 
Cl       8.538654       2.943387       1.288872                                 
 C       6.822735       3.357971       0.921837                                 
 H       6.792188       4.190244       0.218745                                 
 H       6.325537       2.492978       0.483108                                 
 C       6.106729       3.756046       2.213832                                 
 H       6.137271       2.923779       2.916918                                 
 H       6.603918       4.621054       2.652565                                 
Cl       4.390805       4.170637       1.846790                                 
Cl      -3.361563      -1.991196      -4.025053                                 
 C      -4.694690      -1.029068      -3.284831                                 
 H      -4.996552      -0.237973      -3.971143                                 
 H      -5.545192      -1.680508      -3.084274                                 
 C      -4.208364      -0.408123      -1.974019                                 
 H      -3.906503      -1.199227      -1.287712                                 
 H      -3.357861       0.243317      -2.174577                                 
Cl      -5.541502       0.553997      -1.233798                                 
Cl       0.339327      -2.030614      -3.924781                                 
 C       0.053977      -3.433650      -2.828907                                 
 H       0.796175      -3.428434      -2.030755                                 
 H      -0.944301      -3.360912      -2.397528                                 
 C       0.171293      -4.734698      -3.625097                                 
 H      -0.570905      -4.739914      -4.423249                                 
 H       1.169571      -4.807436      -4.056476                                 
Cl      -0.114057      -6.137734      -2.529223                                 
Cl      -5.685235       4.950907       2.209121                                 
 C      -4.523868       4.136562       1.096021                                 
 H      -3.752390       3.634277       1.679494                                 
 H      -5.055215       3.403892       0.488720                                 
 C      -3.874871       5.179489       0.184183                                 
 H      -4.646348       5.681787      -0.399293                                 
 H      -3.343524       5.912173       0.791481                                 
Cl      -2.713504       4.365158      -0.928920                                 
Cl       6.232250      -3.988751      -0.740687                                 
 C       6.352463      -2.710507       0.525211                                 
 H       6.039471      -3.119509       1.485766                                 
 H       7.383665      -2.364700       0.595949                                 
 C       5.445878      -1.536177       0.151813                                 
 H       5.758871      -1.127175      -0.808742                                 
 H       4.414680      -1.881989       0.081082                                 
Cl       5.566092      -0.257932       1.417711                                 
                                                                                
       2.074147       7.128911      -0.484289      -0.200000                    
       1.283279       8.033159      -1.828818      -0.006000                    
       1.506190       9.095738      -1.732864       0.103000                    
       1.660004       7.667438      -2.783934       0.103000                    
      -0.230579       7.822388      -1.763910      -0.006000                    
      -0.453495       6.759802      -1.859852       0.103000                    
      -0.607309       8.188103      -0.808781       0.103000                    
      -1.021452       8.726629      -3.108426      -0.200000                    
       0.040920       5.266754       2.419650      -0.200000                    
       1.052849       6.397810       3.393074      -0.006000                    
       1.976531       5.898866       3.686041       0.103000                    
       1.289031       7.279141       2.796928       0.103000                    
       0.283254       6.821280       4.645576      -0.006000                    
      -0.640419       7.320225       4.352604       0.103000                    
       0.047082       5.939949       5.241716       0.103000                    
       1.295181       7.952328       5.618995      -0.200000                    
       2.950502       1.303281       3.273647      -0.200000                    
       1.548005       0.292032       3.784797      -0.006000                    
       1.003005      -0.045866       2.903454       0.103000                    
       1.907261      -0.572056       4.343520       0.103000                    
       0.617771       1.121444       4.671998      -0.006000                    
       1.162759       1.459335       5.553340       0.103000                    
       0.258507       1.985519       4.113282       0.103000                    
      -0.784732       0.110189       5.183160      -0.200000                    
      -4.940892      -4.001344       0.080702      -0.200000                    
      -3.383624      -4.909886       0.062037      -0.006000                    
      -3.542538      -5.894760      -0.376958       0.103000                    
      -2.650206      -4.362159      -0.529616       0.103000                    
      -2.868000      -5.067488       1.493697      -0.006000                    
      -2.709080      -4.082612       1.932703       0.103000                    
      -3.601415      -5.615221       2.085357       0.103000                    
      -1.310719      -5.976036       1.475036      -0.200000                    
       5.293821       5.118108      -1.766425      -0.200000                    
       5.155975       6.113193      -3.263646      -0.006000                    
       4.206083       5.901783      -3.754541       0.103000                    
       5.203185       7.170456      -3.003131       0.103000                    
       6.306677       5.770255      -4.211603      -0.006000                    
       7.256569       5.981666      -3.720709       0.103000                    
       6.259467       4.712993      -4.472118       0.103000                    
       6.168831       6.765341      -5.708825      -0.200000                    
       1.652830       2.393040      -6.316174      -0.200000                    
       2.433239       1.518144      -4.946346      -0.006000                    
       1.721871       1.417654      -4.126721       0.103000                    
       2.747208       0.528712      -5.278593       0.103000                    
       3.654113       2.305915      -4.467546      -0.006000                    
       4.365469       2.406397      -5.287171       0.103000                    
       3.340136       3.295348      -4.135294       0.103000                    
       4.434510       1.431010      -3.097718      -0.200000                    
       1.905970      -7.602209       2.986518      -0.200000                    
       1.401233      -6.062470       3.777327      -0.006000                    
       0.322504      -6.070321       3.933063       0.103000                    
       1.906555      -5.964514       4.738053       0.103000                    
       1.777906      -4.881439       2.880879      -0.006000                    
       2.856635      -4.873589       2.725143       0.103000                    
       1.272587      -4.979402       1.920161       0.103000                    
       1.273168      -3.341701       3.671688      -0.200000                    
       6.328712      -3.896310      -6.008102      -0.200000                    
       4.992919      -3.910403      -4.797195      -0.006000                    
       4.033456      -3.911203      -5.314280       0.103000                    
       5.072938      -4.803757      -4.177963       0.103000                    
       5.093684      -2.666554      -3.912346      -0.006000                    
       6.053147      -2.665754      -3.395262       0.103000                    
       5.013665      -1.773200      -4.531579       0.103000                    
       3.757903      -2.680639      -2.701439      -0.200000                    
      -4.575243      -3.586849       5.126994      -0.200000                    
      -4.417946      -2.189962       3.997924      -0.006000                    
      -3.762013      -1.438905       4.437913       0.103000                    
      -3.996381      -2.532042       3.052828       0.103000                    
      -5.797679      -1.578061       3.748448      -0.006000                    
      -6.453619      -2.329120       3.308446       0.103000                    
      -6.219249      -1.235975       4.693537       0.103000                    
      -5.640395      -0.181168       2.619376      -0.200000                    
       5.332723      -8.923748      -0.950683      -0.200000                    
       4.886699      -7.177891      -0.888324      -0.006000                    
       5.501269      -6.671991      -0.143816       0.103000                    
       5.053056      -6.725008      -1.865650       0.103000                    
       3.411071      -7.041853      -0.508391      -0.006000                    
       2.796492      -7.547752      -1.252895       0.103000                    
       3.244706      -7.494734       0.468939       0.103000                    
       2.965038      -5.295994      -0.446028      -0.200000                    
       7.756031       0.780072      -1.557603      -0.200000                    
       7.554814       0.199911      -3.252852      -0.006000                    
       6.594248      -0.305346      -3.352620       0.103000                    
       7.591248       1.049502      -3.934617       0.103000                    
       8.681870      -0.776375      -3.594878      -0.006000                    
       9.642429      -0.271110      -3.495102       0.103000                    
       8.645427      -1.625966      -2.913110       0.103000                    
       8.480656      -1.356528      -5.290123      -0.200000                    
      -4.779619       5.996142       7.155619      -0.200000                    
      -4.079429       5.053782       5.787204      -0.006000                    
      -4.635782       4.124781       5.663236       0.103000                    
      -4.143428       5.640869       4.871143       0.103000                    
      -2.613575       4.733697       6.085790      -0.006000                    
      -2.057225       5.662704       6.209752       0.103000                    
      -2.549580       4.146616       7.001844       0.103000                    
      -1.913389       3.791342       4.717368      -0.200000                    
      -1.465564       2.647619      -5.137436      -0.200000                    
      -1.871297       0.927592      -5.494943      -0.006000                    
      -1.259356       0.273117      -4.874354       0.103000                    
      -2.925261       0.750601      -5.280851       0.103000                    
      -1.595125       0.634665      -6.970859      -0.006000                    
      -2.207076       1.289140      -7.591444       0.103000                    
      -0.541174       0.811662      -7.184954       0.103000                    
      -2.000871      -1.085356      -7.328369      -0.200000                    
      -2.502622       5.555854      -6.549325      -0.200000                    
      -3.222290       5.803177      -4.914749      -0.006000                    
      -3.940444       5.009331      -4.709774       0.103000                    
      -2.433227       5.782559      -4.163169       0.103000                    
      -3.933091       7.157093      -4.870072      -0.006000                    
      -3.214937       7.950939      -5.075047       0.103000                    
      -4.722154       7.177711      -5.621653       0.103000                    
      -4.652760       7.404417      -3.235497      -0.200000                    
       0.807326       6.141659      -4.873604      -0.200000                    
       0.705195       7.062550      -6.420320      -0.006000                    
      -0.193781       6.766735      -6.960925       0.103000                    
       0.665552       8.130408      -6.205739       0.103000                    
       1.936817       6.760320      -7.275991      -0.006000                    
       2.835804       7.056140      -6.735385       0.103000                    
       1.976469       5.692460      -7.490575       0.103000                    
       1.834685       7.681209      -8.822706      -0.200000                    
      -9.003705      -2.281317       1.774731      -0.200000                    
      -8.440950      -1.943484       0.095423      -0.006000                    
      -9.187937      -1.343964      -0.424654       0.103000                    
      -7.497715      -1.398519       0.130783       0.103000                    
      -8.238640      -3.264048      -0.649923      -0.006000                    
      -7.491642      -3.863560      -0.129845       0.103000                    
      -9.181863      -3.809005      -0.685282       0.103000                    
      -7.675873      -2.926207      -2.329230      -0.200000                    
      -2.258576       8.645422       1.162554      -0.200000                    
      -3.844103       9.003734       0.382414      -0.006000                    
      -3.718572       9.806123      -0.344479       0.103000                    
      -4.211188       8.110137      -0.122271       0.103000                    
      -4.851348       9.436133       1.449559      -0.006000                    
      -4.976876       8.633752       2.176458       0.103000                    
      -4.484267      10.329737       1.954238       0.103000                    
      -6.436872       9.794453       0.669424      -0.200000                    
       6.340851       1.863817       5.558780      -0.200000                    
       4.946213       1.463396       6.629081      -0.006000                    
       5.192909       1.720332       7.659171       0.103000                    
       4.070639       2.030198       6.312723       0.103000                    
       4.645036      -0.033565       6.535613      -0.006000                    
       4.398331      -0.290500       5.505528       0.103000                    
       5.520602      -0.600366       6.851976       0.103000                    
       3.250389      -0.433985       7.605919      -0.200000                    
       7.988026       9.340255       3.531406      -0.200000                    
       6.979406       8.698613       2.181643      -0.006000                    
       7.627331       8.294707       1.403799       0.103000                    
       6.327793       7.910005       2.557780       0.103000                    
       6.128023       9.828520       1.599548      -0.006000                    
       5.480086      10.232419       2.377392       0.103000                    
       6.779624      10.617122       1.223411       0.103000                    
       5.119395       9.186881       0.249791      -0.200000                    
       1.896043      12.722091       5.231265      -0.200000                    
       1.406066      11.747386       3.795737      -0.006000                    
       0.783311      10.913046       4.118157       0.103000                    
       0.843562      12.375185       3.104825       0.103000                    
       2.654703      11.209716       3.094176      -0.006000                    
       3.277466      12.044058       2.771769       0.103000                    
       3.217208      10.581917       3.785089       0.103000                    
       2.164730      10.235019       1.658654      -0.200000                    
       6.586370      -2.215303       4.445799      -0.200000                    
       8.083924      -1.426286       5.066783      -0.006000                    
       7.873000      -0.947787       6.023076       0.103000                    
       8.862242      -2.177547       5.199980       0.103000                    
       8.558774      -0.373091       4.063958      -0.006000                    
       8.769698      -0.851575       3.107665       0.103000                    
       7.780456       0.378185       3.930760       0.103000                    
      10.056323       0.415935       4.684952      -0.200000                    
      -3.983438      -8.572864       1.181789      -0.200000                    
      -3.351794      -9.678270      -0.094951      -0.006000                    
      -2.599150     -10.338568       0.335656       0.103000                    
      -4.170734     -10.274204      -0.497607       0.103000                    
      -2.722275      -8.852612      -1.218516      -0.006000                    
      -3.474919      -8.192314      -1.649122       0.103000                    
      -1.903334      -8.256678      -0.815859       0.103000                    
      -2.090635      -9.958026      -2.495261      -0.200000                    
       2.852648       4.289230       6.806184      -0.200000                    
       3.537292       5.811383       7.488319      -0.006000                    
       2.760748       6.575353       7.523979       0.103000                    
       3.908979       5.623484       8.495537       0.103000                    
       4.687311       6.294938       6.602880      -0.006000                    
       5.463864       5.530968       6.567216       0.103000                    
       4.315635       6.482844       5.595663       0.103000                    
       5.371966       7.817099       7.285017      -0.200000                    
      -9.337536       2.110554       4.921850      -0.200000                    
      -9.742619       2.466783       3.201400      -0.006000                    
     -10.662453       1.949049       2.929759       0.103000                    
      -9.878914       3.540754       3.074846       0.103000                    
      -8.603301       1.988108       2.299622      -0.006000                    
      -7.683464       2.505836       2.571270       0.103000                    
      -8.467003       0.914146       2.426181       0.103000                    
      -9.008385       2.344337       0.579171      -0.200000                    
       6.303486      10.446829      -3.695048      -0.200000                    
       7.213421       9.626620      -2.372073      -0.006000                    
       7.520269      10.364033      -1.630448       0.103000                    
       6.574663       8.880250      -1.899978       0.103000                    
       8.452291       8.942649      -2.953216      -0.006000                    
       8.145444       8.205236      -3.694841       0.103000                    
       9.091046       9.689012      -3.425317       0.103000                    
       9.362226       8.122441      -1.630241      -0.200000                    
      -7.001615      -5.851615       4.794313      -0.200000                    
      -5.877457      -7.236451       4.530940      -0.006000                    
      -6.221919      -8.098147       5.102544       0.103000                    
      -5.853920      -7.489116       3.470969       0.103000                    
      -4.471995      -6.847336       4.993187      -0.006000                    
      -4.127536      -5.985633       4.421576       0.103000                    
      -4.495529      -6.594662       6.053164       0.103000                    
      -3.347834      -8.232162       4.729820      -0.200000                    
      11.648171       5.231841       3.008471      -0.200000                    
       9.924156       5.741316       3.146595      -0.006000                    
       9.834148       6.794974       2.882753       0.103000                    
       9.313116       5.143692       2.470260       0.103000                    
       9.444627       5.533482       4.584379      -0.006000                    
       9.534632       4.479815       4.848217       0.103000                    
      10.055664       6.131112       5.260708       0.103000                    
       7.720608       6.042950       4.722498      -0.200000                    
      -4.797033      -5.924628      -4.266940      -0.200000                    
      -4.673580      -7.517325      -5.103034      -0.006000                    
      -5.209752      -8.272294      -4.528114       0.103000                    
      -5.110557      -7.440204      -6.098542       0.103000                    
      -3.201932      -7.917880      -5.222298      -0.006000                    
      -2.665764      -7.162919      -5.797224       0.103000                    
      -2.764958      -7.995008      -4.226795       0.103000                    
      -3.078491      -9.510584      -6.058393      -0.200000                    
      -3.300080      -2.320553       8.885132      -0.200000                    
      -3.583020      -1.185755       7.512854      -0.006000                    
      -2.662172      -1.069428       6.941493       0.103000                    
      -4.364221      -1.584984       6.866090       0.103000                    
      -4.019444       0.175250       8.058352      -0.006000                    
      -4.940304       0.058915       8.629712       0.103000                    
      -3.238246       0.574470       8.705111       0.103000                    
      -4.302392       1.310048       6.686079      -0.200000                    
      -0.483733      -5.953416      -7.226585      -0.200000                    
      -0.602419      -4.252120      -7.811621      -0.006000                    
      -1.555323      -4.108381      -8.320802       0.103000                    
      -0.536939      -3.570620      -6.963584       0.103000                    
       0.543151      -3.966303      -8.784408      -0.006000                    
       1.496051      -4.110051      -8.275232       0.103000                    
       0.477667      -4.647812      -9.632451       0.103000                    
       0.424474      -2.265009      -9.369449      -0.200000                    
      10.090063       2.829372      -4.338007      -0.200000                    
      10.594898       3.179818      -2.642922      -0.006000                    
       9.929233       2.663687      -1.951237       0.103000                    
      11.617293       2.834747      -2.489343       0.103000                    
      10.522592       4.686946      -2.390567      -0.006000                    
      11.188252       5.203082      -3.082259       0.103000                    
       9.500189       5.032014      -2.544158       0.103000                    
      11.027427       5.037391      -0.695482      -0.200000                    
       5.948329      -8.407509       6.066607      -0.200000                    
       6.762288      -7.257989       4.940957      -0.006000                    
       7.023984      -6.346686       5.478477       0.103000                    
       7.666802      -7.717856       4.543039       0.103000                    
       5.815581      -6.915857       3.788962      -0.006000                    
       5.553888      -7.827166       3.251447       0.103000                    
       4.911079      -6.455997       4.186881       0.103000                    
       6.629540      -5.766337       2.663311      -0.200000                    
     -10.502315       7.377134       1.280019      -0.200000                    
      -9.364061       6.102317       0.705547      -0.006000                    
      -8.450503       6.136360       1.298983       0.103000                    
      -9.830767       5.123179       0.812481       0.103000                    
      -9.024999       6.347002      -0.766041      -0.006000                    
      -9.938560       6.312952      -1.359483       0.103000                    
      -8.558283       7.326139      -0.872980       0.103000                    
      -7.886739       5.072176      -1.340523      -0.200000                    
      -5.755734      -1.328743      -6.625286      -0.200000                    
      -5.483440      -2.624751      -7.848847      -0.006000                    
      -6.444262      -2.996198      -8.204973       0.103000                    
      -4.916773      -2.219943      -8.687266       0.103000                    
      -4.698695      -3.772196      -7.210223      -0.006000                    
      -3.737876      -3.400757      -6.854102       0.103000                    
      -5.265365      -4.177012      -6.371809       0.103000                    
      -4.426404      -5.068212      -8.433789      -0.200000                    
      -7.591434      -7.010801      -0.093723      -0.200000                    
      -7.759665      -6.738859      -1.868151      -0.006000                    
      -8.586122      -6.053108      -2.054137       0.103000                    
      -6.836885      -6.310698      -2.259449       0.103000                    
      -8.037746      -8.072432      -2.564311      -0.006000                    
      -7.211281      -8.758170      -2.378331       0.103000                    
      -8.960518      -8.500594      -2.173018       0.103000                    
      -8.205967      -7.800489      -4.338744      -0.200000                    
      10.442098      -2.793036       1.784408      -0.200000                    
      11.126458      -1.859287       0.402126      -0.006000                    
      12.079511      -2.296369       0.104497       0.103000                    
      10.432970      -1.892702      -0.438036       0.103000                    
      11.343099      -0.405485       0.826297      -0.006000                    
      10.390047       0.031597       1.123926       0.103000                    
      12.036588      -0.372070       1.666459       0.103000                    
      12.027459       0.528264      -0.555985      -0.200000                    
       3.712718      11.892485      -2.212129      -0.200000                    
       3.178449      12.888513      -0.807338      -0.006000                    
       3.516705      12.422753       0.118207       0.103000                    
       3.604269      13.888595      -0.887835       0.103000                    
       1.651617      12.983932      -0.801180      -0.006000                    
       1.313361      13.449693      -1.726727       0.103000                    
       1.225797      11.983850      -0.720684       0.103000                    
       1.117351      13.979968       0.603615      -0.200000                    
      -1.749595      -7.524921       8.850163      -0.200000                    
      -1.380661      -6.108043       7.797917      -0.006000                    
      -0.908872      -6.451757       6.877497       0.103000                    
      -2.305011      -5.582566       7.558392       0.103000                    
      -0.431702      -5.159981       8.533494      -0.006000                    
      -0.903491      -4.816266       9.453915       0.103000                    
       0.492648      -5.685458       8.773020       0.103000                    
      -0.062767      -3.743104       7.481250      -0.200000                    
       2.510450      -4.137086      10.804385      -0.200000                    