%nprocshared=4                                                                       
%mem=8GB                                                                             
#P pop=chelpg cam-b3lyp/gen scf=qc int=ultrafine charge td(nstates=10)               
                                                                                     
pNA CAM-B3LYP def2-TZVPD Single point - solvent def2-SV(P)                           
                                                                                     
0 1                                                                                  
 C       1.389235       0.000000      -0.000000                                 
 C       0.000000       0.000000      -0.000000                                 
 C      -0.711164       1.193419       0.000000                                 
 C      -0.034074       2.386367       0.000141                                 
 C       1.370482       2.412065       0.000933                                 
 C       2.067428       1.192342       0.000144                                 
 H       1.924301      -0.937208       0.000967                                 
 H      -1.790186       1.173300       0.000962                                 
 H      -0.583208       3.318526      -0.000772                                 
 H       3.149318       1.197759      -0.000767                                 
 N      -0.711160      -1.251627       0.001756                                 
 O      -1.932441      -1.229701       0.002542                                 
 O      -0.067142      -2.289538       0.002483                                 
 N       2.040236       3.590780      -0.024683                                 
 H       1.546357       4.451509       0.132529                                 
 H       3.032458       3.607145       0.132525                                 
Cl       5.650043       3.355738      -4.103759                                 
 C       6.276404       3.949316      -2.520602                                 
 H       7.333183       3.698225      -2.430506                                 
 H       6.153510       5.030774      -2.463400                                 
 C       5.496698       3.287150      -1.383094                                 
 H       4.439929       3.538240      -1.473195                                 
 H       5.619602       2.205690      -1.440301                                 
Cl       6.123059       3.880728       0.200063                                 
Cl       3.083890      -4.961810      -0.149466                                 
 C       2.710246      -3.876512       1.240999                                 
 H       1.941440      -3.161704       0.947934                                 
 H       2.352044      -4.471787       2.080826                                 
 C       3.975824      -3.122764       1.653979                                 
 H       4.744634      -3.837579       1.947050                                 
 H       4.334029      -2.527496       0.814158                                 
Cl       3.602181      -2.037466       3.044444                                 
Cl       1.032487      -2.075923      -3.159884                                 
 C      -0.394388      -3.177788      -3.131602                                 
 H      -1.221982      -2.687878      -2.618757                                 
 H      -0.689866      -3.416299      -4.153232                                 
 C      -0.028788      -4.466663      -2.392995                                 
 H       0.798806      -4.956573      -2.905840                                 
 H       0.266692      -4.228160      -1.371359                                 
Cl      -1.455665      -5.568542      -2.364713                                 
Cl      -4.412382       5.742186       1.595895                                 
 C      -3.142807       5.377856       0.368556                                 
 H      -2.611145       4.470179       0.653833                                 
 H      -3.609584       5.234726      -0.605915                                 
 C      -2.155771       6.544286       0.294196                                 
 H      -2.687434       7.451963       0.008919                                 
 H      -1.688995       6.687416       1.268666                                 
Cl      -0.886192       6.179963      -0.933138                                 
Cl      -4.442729      -4.892685       0.502298                                 
 C      -3.234056      -4.646483       1.817373                                 
 H      -3.210147      -3.593227       2.096683                                 
 H      -3.512348      -5.246197       2.683897                                 
 C      -1.850339      -5.074432       1.324866                                 
 H      -1.874245      -6.127695       1.045561                                 
 H      -1.572048      -4.474731       0.458342                                 
Cl      -0.641668      -4.828243       2.639941                                 
                                                                                
       2.783840      10.986851       0.007959      -0.200000                    
       2.044231       9.613969       0.912964      -0.006000                    
       2.359905       9.653611       1.955435       0.103000                    
       0.958037       9.686087       0.859017       0.103000                    
       2.498340       8.291075       0.293169      -0.006000                    
       2.182658       8.251433      -0.749296       0.103000                    
       3.584531       8.218965       0.347110       0.103000                    
       1.758717       6.918189       1.198173      -0.200000                    
       6.049696       3.974872       5.758347      -0.200000                    
       4.981171       3.597608       4.355914      -0.006000                    
       3.940093       3.748626       4.641054       0.103000                    
       5.228978       4.255192       3.522796       0.103000                    
       5.187844       2.141562       3.934540      -0.006000                    
       6.228923       1.990543       3.649399       0.103000                    
       4.940038       1.483977       4.767656       0.103000                    
       4.119325       1.764304       2.532112      -0.200000                    
      -4.636143       1.946366      -0.622544      -0.200000                    
      -4.802272       0.682261      -1.897411      -0.006000                    
      -3.815795       0.303561      -2.164653       0.103000                    
      -5.415902      -0.135850      -1.520428       0.103000                    
      -5.466977       1.289602      -3.134177      -0.006000                    
      -6.453462       1.668302      -2.866929       0.103000                    
      -4.853347       2.107713      -3.511160       0.103000                    
      -5.633115       0.025498      -4.409039      -0.200000                    
      -5.500734      -1.663267       2.361032      -0.200000                    
      -5.304205       0.120031       2.540108      -0.006000                    
      -5.397475       0.595921       1.564001       0.103000                    
      -6.074771       0.505524       3.207625       0.103000                    
      -3.924095       0.424714       3.125591      -0.006000                    
      -3.830817      -0.051177       4.101693       0.103000                    
      -3.153530       0.039221       2.458075       0.103000                    
      -3.727559       2.208010       3.304662      -0.200000                    
       1.314554       2.416371      -5.501954      -0.200000                    
       2.137301       1.813974      -4.014978      -0.006000                    
       2.677506       2.633429      -3.541057       0.103000                    
       1.393714       1.420016      -3.322278       0.103000                    
       3.121661       0.704795      -4.390652      -0.006000                    
       2.581450      -0.114666      -4.864562       0.103000                    
       3.865246       1.098753      -5.083335       0.103000                    
       3.944401       0.102392      -2.903664      -0.200000                    
      -1.454714       2.172687      -3.237466      -0.200000                    
      -1.336888       0.465984      -3.806852      -0.006000                    
      -0.288580       0.197879      -3.937645       0.103000                    
      -1.792087      -0.195442      -3.069757       0.103000                    
      -2.069906       0.322055      -5.141914      -0.006000                    
      -3.118211       0.590152      -5.011115       0.103000                    
      -1.614704       0.983473      -5.879003       0.103000                    
      -1.952078      -1.384656      -5.711294      -0.200000                    
       2.124417       6.231784      -2.572137      -0.200000                    
       1.088665       7.082782      -3.777888      -0.006000                    
       0.131439       7.334625      -3.321563       0.103000                    
       1.586661       7.995342      -4.105258       0.103000                    
       0.854065       6.170085      -4.983028      -0.006000                    
       1.811296       5.918248      -5.439347       0.103000                    
       0.356068       5.257524      -4.655659       0.103000                    
      -0.181680       7.021081      -6.188767      -0.200000                    
       1.254718       2.483580       5.843955      -0.200000                    
       1.004463       1.288926       4.516891      -0.006000                    
       0.703373       1.811651       3.609115       0.103000                    
       1.933185       0.748576       4.334204       0.103000                    
      -0.089632       0.299132       4.921435      -0.006000                    
       0.211458      -0.223593       5.829211       0.103000                    
      -1.018353       0.839482       5.104122       0.103000                    
      -0.339886      -0.895522       3.594372      -0.200000                    
      -4.156460      -2.821846      -2.433337      -0.200000                    
      -4.408363      -3.784868      -3.936706      -0.006000                    
      -5.148944      -3.290539      -4.565320       0.103000                    
      -3.466426      -3.865142      -4.479155       0.103000                    
      -4.905111      -5.184202      -3.568626      -0.006000                    
      -4.164525      -5.678524      -2.940006       0.103000                    
      -5.847048      -5.103927      -3.026178       0.103000                    
      -5.157013      -6.147223      -5.071995      -0.200000                    
       6.779243       0.681059       0.937835      -0.200000                    
       7.256619      -1.047003       1.129787      -0.006000                    
       7.991494      -1.134476       1.929927       0.103000                    
       6.377385      -1.641783       1.377057       0.103000                    
       7.864762      -1.556375      -0.178309      -0.006000                    
       7.129889      -1.468902      -0.978449       0.103000                    
       8.743991      -0.961601      -0.425567       0.103000                    
       8.342130      -3.284435       0.013649      -0.200000                    
      -0.541030       8.431767       4.355008      -0.200000                    
       1.142548       7.965271       4.800848      -0.006000                    
       1.833936       8.328728       4.040693       0.103000                    
       1.398384       8.404688       5.764886       0.103000                    
       1.242002       6.441473       4.893095      -0.006000                    
       0.550607       6.078019       5.653257       0.103000                    
       0.986162       6.002051       3.929052       0.103000                    
       2.925575       5.974970       5.338929      -0.200000                    
      -3.091764       7.979047      -2.919917      -0.200000                    
      -3.737128       6.845717      -4.164900      -0.006000                    
      -4.575137       7.312756      -4.682179       0.103000                    
      -2.952316       6.609689      -4.883422       0.103000                    
      -4.210552       5.558857      -3.486548      -0.006000                    
      -3.372542       5.091818      -2.969269       0.103000                    
      -4.995358       5.794891      -2.768037       0.103000                    
      -4.855918       4.425535      -4.731537      -0.200000                    
      -1.513802       4.603438       4.314222      -0.200000                    
      -2.687870       4.550529       5.681566      -0.006000                    
      -3.118683       5.540727       5.829393       0.103000                    
      -3.481335       3.839397       5.452148       0.103000                    
      -1.965470       4.113700       6.957367      -0.006000                    
      -1.534652       3.123508       6.809546       0.103000                    
      -1.172008       4.824840       7.186779       0.103000                    
      -3.139533       4.060797       8.324717      -0.200000                    
       4.020514      -5.155107      -6.198530      -0.200000                    
       5.281511      -4.826946      -4.952319      -0.006000                    
       5.568862      -5.761636      -4.470940       0.103000                    
       6.154376      -4.379335      -5.427385       0.103000                    
       4.722895      -3.864182      -3.902878      -0.006000                    
       4.435549      -2.929487      -4.384269       0.103000                    
       3.850042      -4.311789      -3.427811       0.103000                    
       5.983889      -3.536014      -2.656673      -0.200000                    
       4.722444       8.130571       2.988137      -0.200000                    
       6.203969       7.781076       3.954479      -0.006000                    
       6.653971       8.718245       4.281885       0.103000                    
       5.937227       7.182149       4.825173       0.103000                    
       7.204747       7.009228       3.092456      -0.006000                    
       6.754739       6.072053       2.765043       0.103000                    
       7.471488       7.608154       2.221761       0.103000                    
       8.686262       6.659735       4.058803      -0.200000                    
       0.341874      -7.533794      -0.354171      -0.200000                    
       1.968585      -8.238064      -0.683798      -0.006000                    
       2.284111      -7.968393      -1.691591       0.103000                    
       2.686343      -7.848936       0.038240       0.103000                    
       1.898833      -9.761458      -0.562376      -0.006000                    
       1.583314     -10.031131       0.445428       0.103000                    
       1.181078     -10.150594      -1.284408       0.103000                    
       3.525540     -10.465720      -0.891992      -0.200000                    
       8.660059       0.632670      -3.156299      -0.200000                    
       7.987585      -0.595460      -4.292221      -0.006000                    
       8.774766      -0.940214      -4.962591       0.103000                    
       7.597376      -1.440309      -3.724864       0.103000                    
       6.858933       0.032355      -5.112186      -0.006000                    
       6.071760       0.377107      -4.441804       0.103000                    
       7.249149       0.877202      -5.679532       0.103000                    
       6.186460      -1.195775      -6.248108      -0.200000                    
       5.359487      10.949983      -3.385021      -0.200000                    
       5.335915       9.479878      -2.341365      -0.006000                    
       4.574772       9.594044      -1.569651       0.103000                    
       5.107833       8.605243      -2.950422       0.103000                    
       6.705249       9.299532      -1.683540      -0.006000                    
       7.466392       9.185366      -2.455254       0.103000                    
       6.933339      10.174167      -1.074472       0.103000                    
       6.681676       7.829428      -0.639885      -0.200000                    
      -0.780290      -4.066719       7.195755      -0.200000                    
       0.905831      -4.204429       6.572094      -0.006000                    
       1.109513      -3.379477       5.889492       0.103000                    
       1.606212      -4.167374       7.406369       0.103000                    
       1.067991      -5.532016       5.829415      -0.006000                    
       0.864309      -6.356968       6.512017       0.103000                    
       0.367600      -5.569062       4.995139       0.103000                    
       2.754110      -5.669718       5.205748      -0.200000                    
     -11.492261       0.891968      -1.341488      -0.200000                    
     -10.261789      -0.072470      -0.443323      -0.006000                    
      -9.764278       0.563984       0.288361       0.103000                    
     -10.751796      -0.900564       0.068621       0.103000                    
      -9.227397      -0.622303      -1.427206      -0.006000                    
      -9.724901      -1.258752      -2.158902       0.103000                    
      -8.737385       0.205797      -1.939144       0.103000                    
      -7.996928      -1.586735      -0.529047      -0.200000                    
      11.838345       2.831703      -0.799904      -0.200000                    
      11.370960       4.290974       0.150392      -0.006000                    
      11.448421       4.071593       1.215197       0.103000                    
      12.036954       5.116619      -0.100081       0.103000                    
       9.929918       4.678743      -0.186310      -0.006000                    
       9.852458       4.898116      -1.251107       0.103000                    
       9.263932       3.853096       0.064159       0.103000                    
       9.462535       6.138005       0.763994      -0.200000                    
      -8.361254       3.765321       3.666615      -0.200000                    
      -8.063712       4.065996       1.913933      -0.006000                    
      -8.628301       4.941799       1.594316       0.103000                    
      -7.000217       4.239380       1.750209       0.103000                    
      -8.511765       2.847761       1.104308      -0.006000                    
      -7.947176       1.971958       1.423924       0.103000                    
      -9.575260       2.674377       1.268031       0.103000                    
      -8.214224       3.148435      -0.648374      -0.200000                    
      -1.099713       3.293318     -10.180912      -0.200000                    
      -1.114510       4.102164      -8.569571      -0.006000                    
      -0.119717       4.049861      -8.127356       0.103000                    
      -1.404713       5.145885      -8.689327       0.103000                    
      -2.116691       3.396627      -7.654027      -0.006000                    
      -3.111484       3.448930      -8.096243       0.103000                    
      -1.826488       2.352906      -7.534272       0.103000                    
      -2.131489       4.205473      -6.042686      -0.200000                    
      -1.785203      13.665608      -1.262693      -0.200000                    
      -1.256921      11.963369      -1.535102      -0.006000                    
      -1.187572      11.446614      -0.577973       0.103000                    
      -1.981670      11.455113      -2.170985       0.103000                    
       0.112183      11.957371      -2.217630      -0.006000                    
       0.042819      12.474129      -3.174765       0.103000                    
       0.836928      12.465621      -1.581752       0.103000                    
       0.640458      10.255135      -2.490050      -0.200000                    
       6.953111      -1.732948       7.605999      -0.200000                    
       5.451843      -0.762983       7.843379      -0.006000                    
       5.160046      -0.795647       8.893005       0.103000                    
       5.636186       0.270182       7.549253       0.103000                    
       4.327796      -1.344473       6.983847      -0.006000                    
       4.619586      -1.311808       5.934209       0.103000                    
       4.143446      -2.377637       7.277962       0.103000                    
       2.826528      -0.374509       7.221227      -0.200000                    
       5.304487      -7.548528      -1.988717      -0.200000                    
       6.316516      -7.905992      -0.539926      -0.006000                    
       5.963680      -8.822444      -0.067119       0.103000                    
       7.355696      -8.030636      -0.844120       0.103000                    
       6.212006      -6.747389       0.453578      -0.006000                    
       6.564841      -5.830936      -0.019230       0.103000                    
       5.172826      -6.622745       0.757771       0.103000                    
       7.224035      -7.104853       1.902368      -0.200000                    
      -5.499812      -8.110890      -1.441043      -0.200000                    
      -4.515013      -9.559547      -1.013793      -0.006000                    
      -4.696021      -9.828183       0.026870       0.103000                    
      -4.795167     -10.392613      -1.658343       0.103000                    
      -3.030969      -9.242451      -1.207317      -0.006000                    
      -2.849969      -8.973812      -2.247974       0.103000                    
      -2.750823      -8.409384      -0.562763       0.103000                    
      -2.046183     -10.691112      -0.780067      -0.200000                    
       1.530079      -1.977110      -6.891661      -0.200000                    
       2.684792      -0.935293      -7.803939      -0.006000                    
       2.929370      -0.055728      -7.208508       0.103000                    
       3.594876      -1.497552      -8.012678       0.103000                    
       2.043770      -0.496216      -9.121763      -0.006000                    
       1.799197      -1.375775      -9.717189       0.103000                    
       1.133694       0.066041      -8.913031       0.103000                    
       3.198482       0.545601     -10.034041      -0.200000                    
      -5.370821       1.160512      10.287211      -0.200000                    
      -3.920064       0.689453       9.325784      -0.006000                    
      -3.109473       1.390754       9.523487       0.103000                    
      -3.607814      -0.316006       9.607758       0.103000                    
      -4.265069       0.716617       7.835608      -0.006000                    
      -5.075661       0.015316       7.637906       0.103000                    
      -4.577317       1.722068       7.553641       0.103000                    
      -2.814313       0.245558       6.874181      -0.200000                    
      -1.546237      -5.482866      -6.127680      -0.200000                    
      -1.117346      -4.606639      -7.643937      -0.006000                    
      -1.926351      -4.712942      -8.366540       0.103000                    
      -0.964041      -3.550515      -7.422595       0.103000                    
       0.167825      -5.196499      -8.227669      -0.006000                    
       0.976825      -5.090204      -7.505072       0.103000                    
       0.014524      -6.252631      -8.449021       0.103000                    
       0.596712      -4.320278      -9.743931      -0.200000                    
       8.449491       0.560421       4.872868      -0.200000                    
       9.664865       1.714548       4.208174      -0.006000                    
       9.472684       1.873866       3.147222       0.103000                    
       9.591736       2.664449       4.737573       0.103000                    
      11.069631       1.136739       4.390263      -0.006000                    
      11.261812       0.977421       5.451215       0.103000                    
      11.142759       0.186838       3.860863       0.103000                    
      12.284997       2.290867       3.725574      -0.200000                    
      -9.443885       2.054005      -4.013085      -0.200000                    
      -8.435362       3.542235      -4.150806      -0.006000                    
      -8.679772       4.223727      -3.336104       0.103000                    
      -7.380635       3.273063      -4.095587       0.103000                    
      -8.716944       4.226968      -5.489517      -0.006000                    
      -8.472531       3.545469      -6.304213       0.103000                    
      -9.771672       4.496140      -5.544736       0.103000                    
      -7.708422       5.715198      -5.627238      -0.200000                    
       3.055873      10.944666      -7.980297      -0.200000                    
       2.966927       9.285254      -7.280731      -0.006000                    
       2.302693       9.290120      -6.416601       0.103000                    
       2.582313       8.594532      -8.031015       0.103000                    
       4.364388       8.839335      -6.846553      -0.006000                    
       5.028622       8.834469      -7.710683       0.103000                    
       4.749001       9.530056      -6.096269       0.103000                    
       4.275442       7.179922      -6.146986      -0.200000                    
       2.138120      -8.274583      -4.548601      -0.200000                    
       0.531062      -8.202785      -5.362930      -0.006000                    
      -0.213990      -8.699272      -4.741357       0.103000                    
       0.245043      -7.161642      -5.511657       0.103000                    
       0.614423      -8.906800      -6.718567      -0.006000                    
       1.359478      -8.410321      -7.340135       0.103000                    
       0.900443      -9.947945      -6.569840       0.103000                    
      -0.992642      -8.835011      -7.532887      -0.200000                    
      -3.729828      11.506193       4.757793      -0.200000                    
      -3.278569      11.395248       3.015683      -0.006000                    
      -3.530630      12.329766       2.514573       0.103000                    
      -2.207465      11.213360       2.928425       0.103000                    
      -4.045631      10.244027       2.362545      -0.006000                    
      -3.793564       9.309514       2.863643       0.103000                    
      -5.116735      10.425915       2.449802       0.103000                    
      -3.594364      10.133080       0.620429      -0.200000                    
     -12.095726      -0.467253       5.564062      -0.200000                    
     -11.162014      -0.955007       4.100803      -0.006000                    
     -11.108619      -2.042395       4.049336       0.103000                    
     -11.658135      -0.572735       3.208806       0.103000                    
      -9.747225      -0.378864       4.183218      -0.006000                    
      -9.800626       0.708516       4.234680       0.103000                    
      -9.251104      -0.761137       5.075216       0.103000                    
      -8.813518      -0.866625       2.719953      -0.200000                    
      -6.446898       9.324430       4.603771      -0.200000                    
      -5.818024       7.675695       4.973941      -0.006000                    
      -5.435200       7.219204       4.061265       0.103000                    
      -5.015695       7.748938       5.708017       0.103000                    
      -6.948503       6.813768       5.539211      -0.006000                    
      -7.331320       7.270265       6.451876       0.103000                    
      -7.750829       6.740539       4.805134       0.103000                    
      -6.319625       5.165048       5.909381      -0.200000                    
      -5.667607      -6.015092       4.803502      -0.200000                    
      -6.958061      -6.453090       3.622938      -0.006000                    
      -7.430808      -5.545549       3.247708       0.103000                    
      -6.518553      -7.004419       2.791797       0.103000                    
      -8.007312      -7.325378       4.314732      -0.006000                    
      -7.534564      -8.232919       4.689962       0.103000                    
      -8.446830      -6.774040       5.145873       0.103000                    
      -9.297773      -7.763374       3.134174      -0.200000                    
      -3.407945      -8.390608       3.339458      -0.200000                    