%nprocshared=4                                                                       
%mem=8GB                                                                             
#P pop=chelpg cam-b3lyp/gen scf=qc int=ultrafine charge td(nstates=10)               
                                                                                     
pNA CAM-B3LYP def2-TZVPD Single point - solvent def2-SV(P)                           
                                                                                     
0 1                                                                                  
 C       1.389235       0.000000      -0.000000                                 
 C       0.000000       0.000000      -0.000000                                 
 C      -0.711164       1.193419       0.000000                                 
 C      -0.034074       2.386367       0.000141                                 
 C       1.370482       2.412065       0.000933                                 
 C       2.067428       1.192342       0.000144                                 
 H       1.924301      -0.937208       0.000967                                 
 H      -1.790186       1.173300       0.000962                                 
 H      -0.583208       3.318526      -0.000772                                 
 H       3.149318       1.197759      -0.000767                                 
 N      -0.711160      -1.251627       0.001756                                 
 O      -1.932441      -1.229701       0.002542                                 
 O      -0.067142      -2.289538       0.002483                                 
 N       2.040236       3.590780      -0.024683                                 
 H       1.546357       4.451509       0.132529                                 
 H       3.032458       3.607145       0.132525                                 
Cl       0.379973       5.845403       1.225096                                 
 C      -1.198833       6.715114       1.181805                                 
 H      -1.678506       6.550058       0.217129                                 
 H      -1.842735       6.339571       1.976986                                 
 C      -0.961600       8.212961       1.383088                                 
 H      -0.481920       8.378023       2.347769                                 
 H      -0.317698       8.588503       0.587907                                 
Cl      -2.540400       9.082679       1.339802                                 
Cl       5.095376      -0.484658       0.033032                                 
 C       5.883954      -2.026143      -0.469799                                 
 H       5.119147      -2.757659      -0.730383                                 
 H       6.521648      -1.843109      -1.334548                                 
 C       6.732192      -2.564927       0.683709                                 
 H       7.496999      -1.833411       0.944293                                 
 H       6.094498      -2.747961       1.548458                                 
Cl       7.520763      -4.106409       0.180884                                 
Cl       1.816588       3.987313      -5.023576                                 
 C       1.155729       4.479829      -3.419968                                 
 H       1.381213       3.710229      -2.681881                                 
 H       1.610030       5.421920      -3.113306                                 
 C      -0.360273       4.655911      -3.525459                                 
 H      -0.585752       5.425519      -4.263543                                 
 H      -0.814581       3.713823      -3.832116                                 
Cl      -1.021134       5.148437      -1.921841                                 
Cl      -1.452258      -4.723199      -2.085535                                 
 C      -1.928280      -4.808358      -0.348548                                 
 H      -1.033213      -4.840284       0.272577                                 
 H      -2.519058      -3.929672      -0.089968                                 
 C      -2.759878      -6.069857      -0.108955                                 
 H      -3.654940      -6.037923      -0.730076                                 
 H      -2.169087      -6.948537      -0.367537                                 
Cl      -3.235893      -6.155018       1.628026                                 
Cl       1.060378      -6.393967      -3.573021                                 
 C       1.531295      -4.667470      -3.792876                                 
 H       2.372788      -4.605145      -4.482771                                 
 H       0.687256      -4.109078      -4.197552                                 
 C       1.934817      -4.073007      -2.442264                                 
 H       1.093340      -4.135333      -1.752364                                 
 H       2.778872      -4.631400      -2.037583                                 
Cl       2.405739      -2.346502      -2.662115                                 
                                                                                
       4.810133       2.533587      -1.830838      -0.200000                    
       4.831615       1.950492      -3.536863      -0.006000                    
       4.580424       2.773650      -4.205627       0.103000                    
       5.825374       1.574705      -3.780164       0.103000                    
       3.806977       0.826974      -3.704701      -0.006000                    
       4.058178       0.003808      -3.035937       0.103000                    
       2.813216       1.202748      -3.461398       0.103000                    
       3.828470       0.243871      -5.410725      -0.200000                    
       2.262947      -0.319585       3.343170      -0.200000                    
       1.354495       0.972216       4.213172      -0.006000                    
       0.317918       0.977559       3.876358       0.103000                    
       1.387328       0.780512       5.285616       0.103000                    
       1.992745       2.331033       3.918809      -0.006000                    
       3.029330       2.325688       4.255618       0.103000                    
       1.959919       2.522734       2.846359       0.103000                    
       1.084300       3.622831       4.788805      -0.200000                    
      -5.709795       2.269415      -3.002457      -0.200000                    
      -5.455258       3.025429      -1.385517      -0.006000                    
      -6.340658       3.597308      -1.108105       0.103000                    
      -5.278335       2.246624      -0.643831       0.103000                    
      -4.244020       3.958089      -1.443683      -0.006000                    
      -3.358613       3.386208      -1.721100       0.103000                    
      -4.420936       4.736891      -2.185375       0.103000                    
      -3.989483       4.714103       0.173258      -0.200000                    
       7.684200       1.745242       5.430473      -0.200000                    
       7.247855       2.895448       4.112302      -0.006000                    
       6.888159       3.827724       4.547551       0.103000                    
       8.126285       3.095675       3.498941       0.103000                    
       6.148751       2.281670       3.243058      -0.006000                    
       6.508444       1.349401       2.807802       0.103000                    
       5.270319       2.081450       3.856412       0.103000                    
       5.712403       3.431882       1.924881      -0.200000                    
       8.467589       6.712633      -2.103923      -0.200000                    
       6.867599       6.737379      -1.273030      -0.006000                    
       6.910632       6.110387      -0.382528       0.103000                    
       6.622661       7.759968      -0.986186       0.103000                    
       5.792416       6.202776      -2.220973      -0.006000                    
       5.749393       6.829768      -3.111465       0.103000                    
       6.037366       5.180177      -2.507817       0.103000                    
       4.192435       6.227521      -1.390070      -0.200000                    
       0.361298      -4.644360       3.477192      -0.200000                    
      -0.990098      -3.710085       4.219946      -0.006000                    
      -1.898651      -3.858808       3.636530       0.103000                    
      -1.152941      -4.055537       5.240782       0.103000                    
      -0.633060      -2.222599       4.236381      -0.006000                    
       0.275486      -2.073874       4.819802       0.103000                    
      -0.470230      -1.877152       3.215547       0.103000                    
      -1.984466      -1.288335       4.979143      -0.200000                    
      -4.317843      -0.277980      -6.102376      -0.200000                    
      -2.694185      -0.418383      -5.331086      -0.006000                    
      -2.511812      -1.456623      -5.054067       0.103000                    
      -1.928356      -0.089626      -6.033483       0.103000                    
      -2.647028       0.458827      -4.078629      -0.006000                    
      -2.829405       1.497063      -4.355635       0.103000                    
      -3.412854       0.130064      -3.376225       0.103000                    
      -1.023370       0.318424      -3.307338      -0.200000                    
      -7.466712      -4.063803      -1.534075      -0.200000                    
      -6.472329      -4.166056      -0.033497      -0.006000                    
      -7.122721      -4.348126       0.821938       0.103000                    
      -5.756730      -4.982864      -0.126497       0.103000                    
      -5.719450      -2.849945       0.169988      -0.006000                    
      -5.069050      -2.667878      -0.685453       0.103000                    
      -6.435052      -2.033132       0.262981       0.103000                    
      -4.725062      -2.952195       1.670552      -0.200000                    
       4.953012      -5.986032       5.344949      -0.200000                    
       4.293199      -4.674177       4.298728      -0.006000                    
       3.284472      -4.421459       4.625176       0.103000                    
       4.931017      -3.793597       4.374050       0.103000                    
       4.253759      -5.151814       2.845903      -0.006000                    
       5.262485      -5.404532       2.519455       0.103000                    
       3.615943      -6.032400       2.770587       0.103000                    
       3.593949      -3.839965       1.799688      -0.200000                    
      -3.759023       6.101697       4.072124      -0.200000                    
      -3.698023       4.306789       3.912539      -0.006000                    
      -4.461950       3.859106       4.548087       0.103000                    
      -3.879236       4.027688       2.874658       0.103000                    
      -2.318803       3.803242       4.342100      -0.006000                    
      -1.554876       4.250925       3.706551       0.103000                    
      -2.137591       4.082344       5.379981       0.103000                    
      -2.257804       2.008334       4.182515      -0.200000                    
       5.535868       7.148772       1.907037      -0.200000                    
       4.919868       7.180157       3.601273      -0.006000                    
       3.830496       7.213171       3.591501       0.103000                    
       5.251743       6.284049       4.125466       0.103000                    
       5.460649       8.419025       4.317619      -0.006000                    
       6.550016       8.386005       4.327387       0.103000                    
       5.128767       9.315137       3.793432       0.103000                    
       4.844650       8.450412       6.011855      -0.200000                    
       0.585850      10.403521      -1.904953      -0.200000                    
      -1.066838      10.315822      -2.620414      -0.006000                    
      -1.800196      10.640886      -1.882517       0.103000                    
      -1.119247      10.964008      -3.495072       0.103000                    
      -1.366763       8.874357      -3.035905      -0.006000                    
      -0.633412       8.549285      -3.773806       0.103000                    
      -1.314356       8.226156      -2.161244       0.103000                    
      -3.019458       8.786652      -3.751370      -0.200000                    
      -7.803879       0.908851       1.171195      -0.200000                    
      -7.484044       2.310480       2.259349      -0.006000                    
      -6.409324       2.421675       2.402673       0.103000                    
      -7.886855       3.218448       1.810636       0.103000                    
      -8.156154       2.069445       3.612342      -0.006000                    
      -9.230872       1.958241       3.469007       0.103000                    
      -7.753339       1.161481       4.061041       0.103000                    
      -7.836328       3.471075       4.700485      -0.200000                    
      -0.273581       6.754744       8.918579      -0.200000                    
      -0.081610       6.434012       7.154737      -0.006000                    
       0.286098       5.418561       7.007752       0.103000                    
      -1.044909       6.547361       6.657644       0.103000                    
       0.917942       7.428597       6.561413      -0.006000                    
       0.550243       8.444049       6.708408       0.103000                    
       1.881241       7.315248       7.058506       0.103000                    
       1.109913       7.107866       4.797571      -0.200000                    
       7.136369      -0.958024      -4.242031      -0.200000                    
       6.635987      -2.437292      -5.143390      -0.006000                    
       6.402983      -2.173138      -6.174849       0.103000                    
       7.448134      -3.164043      -5.128809       0.103000                    
       5.397706      -3.043808      -4.480678      -0.006000                    
       5.630709      -3.307961      -3.449219       0.103000                    
       4.585565      -2.317050      -4.495255       0.103000                    
       4.897331      -4.523078      -5.382043      -0.200000                    
      10.220655       0.857460      -3.806703      -0.200000                    
       9.862345       2.224186      -2.686640      -0.006000                    
      10.769548       2.804647      -2.519475       0.103000                    
       9.097359       2.863844      -3.126616       0.103000                    
       9.358298       1.671216      -1.352277      -0.006000                    
       8.451096       1.090755      -1.519442       0.103000                    
      10.123283       1.031558      -0.912301       0.103000                    
       8.999993       3.037949      -0.232211      -0.200000                    
      -6.909108      -3.295576       3.888894      -0.200000                    
      -5.484742      -3.929827       4.794353      -0.006000                    
      -5.701052      -4.935689       5.154041       0.103000                    
      -4.617733      -3.958288       4.134516       0.103000                    
      -5.189024      -3.015720       5.984877      -0.006000                    
      -4.972709      -2.009851       5.625194       0.103000                    
      -6.056039      -2.987257       6.644720       0.103000                    
      -3.764657      -3.649969       6.890353      -0.200000                    
       2.242168       7.326148      -4.671818      -0.200000                    
       2.502254       9.046429      -4.198777      -0.006000                    
       1.586225       9.612412      -4.367587       0.103000                    
       2.771473       9.096698      -3.143832       0.103000                    
       3.631591       9.641891      -5.041638      -0.006000                    
       4.547607       9.075903      -4.872828       0.103000                    
       3.362360       9.591617      -6.096582       0.103000                    
       3.891677      11.362171      -4.568598      -0.200000                    
       1.575886      -7.580404       4.543482      -0.200000                    
       1.274328      -8.068671       2.834236      -0.006000                    
       1.553239      -7.252180       2.168256       0.103000                    
       1.869696      -8.950405       2.597545       0.103000                    
      -0.209661      -8.391673       2.650410      -0.006000                    
      -0.488575      -9.208158       3.316383       0.103000                    
      -0.805032      -7.509933       2.887093       0.103000                    
      -0.511222      -8.879934       0.941157      -0.200000                    
      -3.645216       3.775967      -5.266876      -0.200000                    
      -4.557662       3.450069      -6.787467      -0.006000                    
      -4.522021       4.330714      -7.428684       0.103000                    
      -4.108289       2.603748      -7.306839       0.103000                    
      -6.013695       3.125134      -6.448755      -0.006000                    
      -6.049330       2.244496      -5.807532       0.103000                    
      -6.463063       3.971463      -5.929378       0.103000                    
      -6.926132       2.799237      -7.969335      -0.200000                    
       5.622196      -5.768327      -1.927397      -0.200000                    
       6.687735      -7.212149      -1.751626      -0.006000                    
       7.338636      -7.080577      -0.887341       0.103000                    
       6.074082      -8.102109      -1.612461       0.103000                    
       7.540294      -7.373141      -3.011596      -0.006000                    
       6.889389      -7.504698      -3.875878       0.103000                    
       8.153946      -6.483171      -3.150750       0.103000                    
       8.605823      -8.816955      -2.835825      -0.200000                    
       4.865513      -3.189574       9.540982      -0.200000                    
       5.228851      -2.685859       7.848307      -0.006000                    
       6.289232      -2.450197       7.758786       0.103000                    
       4.977906      -3.497576       7.165602       0.103000                    
       4.400595      -1.448997       7.495420      -0.006000                    
       3.340218      -1.684654       7.584928       0.103000                    
       4.651543      -0.637267       8.178123       0.103000                    
       4.763940      -0.945284       5.802738      -0.200000                    
       1.288209      -1.900965      -6.303782      -0.200000                    
       0.208393      -2.548311      -7.594486      -0.006000                    
      -0.770656      -2.075098      -7.520632       0.103000                    
       0.642020      -2.336018      -8.571636       0.103000                    
       0.057410      -4.060856      -7.421918      -0.006000                    
       1.036459      -4.534069      -7.495771       0.103000                    
      -0.376217      -4.273148      -6.444767       0.103000                    
      -1.022393      -4.708198      -8.712625      -0.200000                    
      -0.188411     -10.208769      -2.915493      -0.200000                    
      -1.448017      -8.923240      -3.023736      -0.006000                    
      -1.269936      -8.173870      -2.252568       0.103000                    
      -1.403327      -8.452199      -4.005607       0.103000                    
      -2.830576      -9.545548      -2.819750      -0.006000                    
      -3.008658     -10.294919      -3.590917       0.103000                    
      -2.875266     -10.016590      -1.837878       0.103000                    
      -4.090189      -8.260028      -2.927997      -0.200000                    
       4.452358      10.248326       0.673189      -0.200000                    
       4.774125      12.020041       0.581817      -0.006000                    
       4.223438      12.530797       1.371625       0.103000                    
       5.841444      12.202629       0.706207       0.103000                    
       4.321831      12.550900      -0.779800      -0.006000                    
       4.872532      12.040148      -1.569610       0.103000                    
       3.254525      12.368316      -0.904192       0.103000                    
       4.643606      14.322612      -0.871177      -0.200000                    
      -7.571195      -1.998620      -6.091597      -0.200000                    
      -8.473215      -1.465335      -4.624319      -0.006000                    
      -9.542562      -1.464917      -4.835088       0.103000                    
      -8.265153      -2.148838      -3.801208       0.103000                    
      -8.029589      -0.053060      -4.238251      -0.006000                    
      -6.960249      -0.053476      -4.027475       0.103000                    
      -8.237659       0.630445      -5.061355       0.103000                    
      -8.931612       0.480221      -2.770959      -0.200000                    
      -5.998682       6.103524      -3.643159      -0.200000                    
      -6.177841       7.504752      -2.522686      -0.006000                    
      -6.784719       7.210381      -1.666512       0.103000                    
      -5.193909       7.823213      -2.178574       0.103000                    
      -6.859511       8.660871      -3.256895      -0.006000                    
      -6.252633       8.955242      -4.113070       0.103000                    
      -7.843447       8.342416      -3.601015       0.103000                    
      -7.038666      10.062102      -2.136436      -0.200000                    
       7.697606       0.206822      -8.314919      -0.200000                    
       8.253769       1.362598      -7.047733      -0.006000                    
       8.727612       0.811350      -6.235615       0.103000                    
       8.970965       2.059671      -7.480957       0.103000                    
       7.053308       2.139326      -6.503736      -0.006000                    
       6.579478       2.690563      -7.315854       0.103000                    
       6.336112       1.442252      -6.070514       0.103000                    
       7.609476       3.295094      -5.236543      -0.200000                    
      -6.145999      11.520867       1.946359      -0.200000                    
      -5.933333       9.794089       2.419667      -0.006000                    
      -4.900784       9.625344       2.725122       0.103000                    
      -6.600718       9.559528       3.248811       0.103000                    
      -6.265590       8.894092       1.228022      -0.006000                    
      -7.298131       9.062835       0.922560       0.103000                    
      -5.598205       9.128654       0.398878       0.103000                    
      -6.052933       7.167314       1.701319      -0.200000                    
      -6.028643      -7.313194      -6.401155      -0.200000                    
      -4.538988      -6.353369      -6.068630      -0.006000                    
      -4.332336      -6.361872      -4.998519       0.103000                    
      -3.697170      -6.791096      -6.604977       0.103000                    
      -4.746501      -4.911521      -6.535926      -0.006000                    
      -4.953153      -4.903018      -7.606036       0.103000                    
      -5.588316      -4.473791      -5.999592       0.103000                    
      -3.256841      -3.951688      -6.203396      -0.200000                    
       0.300603      -0.487112       8.575994      -0.200000                    
      -0.474075       1.031278       7.988391      -0.006000                    
       0.047348       1.891459       8.408091       0.103000                    
      -0.420767       1.069145       6.900427       0.103000                    
      -1.939105       1.059443       8.427932      -0.006000                    
      -2.460534       0.199255       8.008228       0.103000                    
      -1.992406       1.021573       9.515889       0.103000                    
      -2.713783       2.577833       7.840328      -0.200000                    
       2.968940       1.818939       9.240429      -0.200000                    
       3.504459       3.430212       8.633809      -0.006000                    
       2.690661       3.899442       8.081108       0.103000                    
       3.782906       4.062013       9.477161       0.103000                    
       4.711126       3.252144       7.710464      -0.006000                    
       5.524925       2.782915       8.263165       0.103000                    
       4.432685       2.620349       6.867115       0.103000                    
       5.246645       4.863418       7.103843      -0.200000                    
       8.768345      -1.307563       3.491287      -0.200000                    
      10.313663      -0.407112       3.719452      -0.006000                    
      10.104712       0.659749       3.797403       0.103000                    
      10.802658      -0.749392       4.631402       0.103000                    
      11.232705      -0.660093       2.522883      -0.006000                    
      11.441665      -1.726953       2.444943       0.103000                    
      10.743710      -0.317812       1.610932       0.103000                    
      12.778027       0.240351       2.751054      -0.200000                    
       3.405183      -8.638404      -0.022805      -0.200000                    
       3.458975     -10.406703       0.325256      -0.006000                    
       4.186869     -10.600212       1.113056       0.103000                    
       2.474357     -10.743595       0.649256       0.103000                    
       3.865206     -11.163461      -0.940717      -0.006000                    
       3.137311     -10.969953      -1.728517       0.103000                    
       4.849823     -10.826568      -1.264718       0.103000                    
       3.919004     -12.931752      -0.592652      -0.200000                    
      -4.493701       9.179543      -8.442971      -0.200000                    
      -3.676487       8.013270      -7.337097      -0.006000                    
      -3.983438       8.210035      -6.309973       0.103000                    
      -3.955243       6.995872      -7.611287       0.103000                    
      -2.159871       8.175379      -7.455475      -0.006000                    
      -1.852925       7.978607      -8.482604       0.103000                    
      -1.881120       9.192768      -7.181289       0.103000                    
      -1.342655       7.009097      -6.349612      -0.200000                    
       0.286019      10.969645       4.982715      -0.200000                    
       2.087886      11.033697       4.989095      -0.006000                    
       2.475590      10.291933       5.687249       0.103000                    
       2.462780      10.821527       3.987913       0.103000                    
       2.547045      12.427880       5.420140      -0.006000                    
       2.159333      13.169645       4.721976       0.103000                    
       2.172146      12.640043       6.421318       0.103000                    
       4.348908      12.491940       5.426513      -0.200000                    
      -1.227727      -6.823247       6.111063      -0.200000                    
      -2.858080      -7.549410       5.854924      -0.006000                    
      -3.395292      -6.978843       5.097423       0.103000                    
      -2.748222      -8.581637       5.522629       0.103000                    
      -3.642421      -7.517715       7.167988      -0.006000                    
      -3.105213      -8.088286       7.925503       0.103000                    
      -3.752277      -6.485483       7.500300       0.103000                    
      -5.272773      -8.243875       6.911867      -0.200000                    
       2.391870      -7.528930      -7.002803      -0.200000                    
       3.158640      -8.861491      -6.060828      -0.006000                    
       2.383351      -9.480347      -5.609286       0.103000                    
       3.769701      -9.471820      -6.725700       0.103000                    
       4.040464      -8.266742      -4.961252      -0.006000                    
       4.815744      -7.647887      -5.412804       0.103000                    
       3.429402      -7.656416      -4.296396       0.103000                    
       4.807232      -9.599307      -4.019294      -0.200000                    
      11.553621      -4.509981      -3.601808      -0.200000                    