%nprocshared=4                                                                       
%mem=8GB                                                                             
#P pop=chelpg cam-b3lyp/gen scf=qc int=ultrafine charge td(nstates=10)               
                                                                                     
pNA CAM-B3LYP def2-TZVPD Single point - solvent def2-SV(P)                           
                                                                                     
0 1                                                                                  
 C       1.389235       0.000000      -0.000000                                 
 C       0.000000       0.000000      -0.000000                                 
 C      -0.711164       1.193419       0.000000                                 
 C      -0.034074       2.386367       0.000141                                 
 C       1.370482       2.412065       0.000933                                 
 C       2.067428       1.192342       0.000144                                 
 H       1.924301      -0.937208       0.000967                                 
 H      -1.790186       1.173300       0.000962                                 
 H      -0.583208       3.318526      -0.000772                                 
 H       3.149318       1.197759      -0.000767                                 
 N      -0.711160      -1.251627       0.001756                                 
 O      -1.932441      -1.229701       0.002542                                 
 O      -0.067142      -2.289538       0.002483                                 
 N       2.040236       3.590780      -0.024683                                 
 H       1.546357       4.451509       0.132529                                 
 H       3.032458       3.607145       0.132525                                 
Cl       4.993021       4.281751      -0.274026                                 
 C       4.762720       3.426035      -1.844251                                 
 H       3.771582       2.973338      -1.869646                                 
 H       4.858255       4.138161      -2.663826                                 
 C       5.824996       2.334978      -1.991013                                 
 H       6.816129       2.787683      -1.965617                                 
 H       5.729465       1.622865      -1.171435                                 
Cl       5.594690       1.479271      -3.561237                                 
Cl      -2.874922      -6.168219      -0.925922                                 
 C      -3.974422      -4.866589      -1.515573                                 
 H      -4.137053      -4.985569      -2.586718                                 
 H      -4.928845      -4.932630      -0.993414                                 
 C      -3.339327      -3.501324      -1.245323                                 
 H      -3.176701      -3.382335      -0.174178                                 
 H      -2.384902      -3.435281      -1.767492                                 
Cl      -4.438828      -2.199694      -1.834974                                 
Cl      -3.576245       2.142025       1.902853                                 
 C      -5.069630       1.133868       1.968715                                 
 H      -5.247925       0.814804       2.995539                                 
 H      -5.919189       1.719130       1.617165                                 
 C      -4.894239      -0.096219       1.076238                                 
 H      -4.715947       0.222843       0.049423                                 
 H      -4.044683      -0.681483       1.427798                                 
Cl      -6.387624      -1.104375       1.142100                                 
Cl       0.765973      -4.807352      -2.604919                                 
 C       2.011784      -3.518439      -2.411153                                 
 H       2.658775      -3.503345      -3.288130                                 
 H       1.520763      -2.551201      -2.304927                                 
 C       2.850745      -3.803509      -1.164032                                 
 H       2.203749      -3.818595      -0.287055                                 
 H       3.341774      -4.770743      -1.270256                                 
Cl       4.096564      -2.514593      -0.970264                                 
Cl      -0.581291      -6.646364       2.347221                                 
 C       0.273814      -5.114479       1.931266                                 
 H       0.792272      -5.234251       0.980051                                 
 H      -0.450518      -4.304014       1.851016                                 
 C       1.289160      -4.783611       3.026713                                 
 H       0.770701      -4.663839       3.977929                                 
 H       2.013492      -5.594076       3.106963                                 
Cl       2.144277      -3.251730       2.610761                                 
                                                                                
       1.032239       6.140883      -2.116195      -0.200000                    
       2.638918       6.959087      -2.115777      -0.006000                    
       2.504965       8.023232      -1.921890       0.103000                    
       3.268064       6.524419      -1.339163       0.103000                    
       3.307873       6.769854      -3.478509      -0.006000                    
       3.441833       5.705701      -3.672406       0.103000                    
       2.678734       7.204515      -4.255133       0.103000                    
       4.914568       7.588056      -3.478098      -0.200000                    
      -1.161175       1.006198       4.736137      -0.200000                    
      -2.115465      -0.127682       3.709214      -0.006000                    
      -3.132316      -0.199406       4.094985       0.103000                    
      -2.140631       0.243267       2.684670       0.103000                    
      -1.462386      -1.510871       3.734274      -0.006000                    
      -0.445528      -1.439154       3.348493       0.103000                    
      -1.437218      -1.881819       4.758809       0.103000                    
      -2.416668      -2.644747       2.707354      -0.200000                    
       2.905648       2.921767       6.414003      -0.200000                    
       3.052485       2.597203       4.646533      -0.006000                    
       2.109254       2.201739       4.269907       0.103000                    
       3.292115       3.523984       4.125364       0.103000                    
       4.165401       1.575367       4.406444      -0.006000                    
       5.108621       1.970825       4.783077       0.103000                    
       3.925757       0.648590       4.927610       0.103000                    
       4.312230       1.250799       2.638972      -0.200000                    
      -4.891336      -0.757959      -5.435376      -0.200000                    
      -4.717786       0.463561      -4.120596      -0.006000                    
      -5.176441       1.401634      -4.432992       0.103000                    
      -5.211109       0.100130      -3.219216       0.103000                    
      -3.233336       0.693877      -3.831241      -0.006000                    
      -2.774679      -0.244194      -3.518855       0.103000                    
      -2.740016       1.057319      -4.732629       0.103000                    
      -3.059784       1.915399      -2.516470      -0.200000                    
       2.011381      -0.174414      -3.339921      -0.200000                    
       0.387496      -0.581838      -4.009193      -0.006000                    
      -0.232275      -1.012409      -3.222795       0.103000                    
      -0.085840       0.322738      -4.390851       0.103000                    
       0.543696      -1.593549      -5.146055      -0.006000                    
       1.163468      -1.162978      -5.932453       0.103000                    
       1.017031      -2.498127      -4.764387       0.103000                    
      -1.080184      -2.000981      -5.815328      -0.200000                    
      -3.249139       5.838271       5.434493      -0.200000                    
      -2.217826       5.077287       4.166313      -0.006000                    
      -2.396454       4.002232       4.149255       0.103000                    
      -2.464713       5.502343       3.193541       0.103000                    
      -0.744343       5.343936       4.479579      -0.006000                    
      -0.565718       6.418990       4.496646       0.103000                    
      -0.497448       4.918885       5.452354       0.103000                    
       0.286972       4.582942       3.211407      -0.200000                    
       7.818753       4.548129       4.491822      -0.200000                    
       6.673527       5.710020       3.724080      -0.006000                    
       6.654905       6.635767       4.299024       0.103000                    
       6.998339       5.921220       2.705345       0.103000                    
       5.270933       5.099892       3.695372      -0.006000                    
       5.289560       4.174137       3.120428       0.103000                    
       4.946126       4.888684       4.714107       0.103000                    
       4.125712       6.261775       2.927629      -0.200000                    
      -3.062621       5.876878      -1.992717      -0.200000                    
      -4.471327       5.118900      -1.160960      -0.006000                    
      -5.323392       5.092345      -1.840107       0.103000                    
      -4.213340       4.103179      -0.861493       0.103000                    
      -4.833353       5.939051       0.078669      -0.006000                    
      -3.981291       5.965593       0.757813       0.103000                    
      -5.091346       6.954756      -0.220792       0.103000                    
      -6.242067       5.181069       0.910424      -0.200000                    
       6.643013      -3.195280       4.174282      -0.200000                    
       6.946808      -1.671776       3.259138      -0.006000                    
       6.461674      -0.839008       3.768127       0.103000                    
       8.019821      -1.488710       3.203794       0.103000                    
       6.379131      -1.804708       1.844775      -0.006000                    
       6.864259      -2.637479       1.335773       0.103000                    
       5.306111      -1.987777       1.900105       0.103000                    
       6.682925      -0.281204       0.929631      -0.200000                    
      -0.586391      10.240882      -1.213985      -0.200000                    
      -1.411937       9.878747       0.347491      -0.006000                    
      -0.706840      10.004045       1.169155       0.103000                    
      -2.251450      10.560793       0.481638       0.103000                    
      -1.924215       8.437332       0.331169      -0.006000                    
      -2.629312       8.312036      -0.490495       0.103000                    
      -1.084702       7.755287       0.197023       0.103000                    
      -2.749756       8.075189       1.892645      -0.200000                    
      -1.623613      -9.715473      -0.687623      -0.200000                    
       0.046260      -9.216952      -0.225181      -0.006000                    
       0.059745      -8.919823       0.823350       0.103000                    
       0.729802     -10.052561      -0.375092       0.103000                    
       0.485458      -8.037293      -1.094611      -0.006000                    
       0.471972      -8.334423      -2.143142       0.103000                    
      -0.198085      -7.201684      -0.944700       0.103000                    
       2.155339      -7.538768      -0.632166      -0.200000                    
       0.920061       8.684862       2.815673      -0.200000                    
       1.274488       9.216765       4.501602      -0.006000                    
       1.278776       8.350370       5.162880       0.103000                    
       2.249809       9.702317       4.532213       0.103000                    
       0.199619      10.203369       4.961653      -0.006000                    
       0.195336      11.069755       4.300375       0.103000                    
      -0.775701       9.717817       4.931043       0.103000                    
       0.554050      10.735274       6.647574      -0.200000                    
       5.993206      11.215573       3.207132      -0.200000                    
       5.099197       9.880054       2.389751      -0.006000                    
       5.718291       8.983136       2.376081       0.103000                    
       4.175561       9.676057       2.931286       0.103000                    
       4.767677      10.292115       0.954255      -0.006000                    
       4.148586      11.189035       0.967916       0.103000                    
       5.691313      10.496112       0.412720       0.103000                    
       3.873662       8.956593       0.136871      -0.200000                    
      -4.593180       5.384690      -5.950652      -0.200000                    
      -3.050147       4.783170      -5.237839      -0.006000                    
      -2.407097       5.629364      -4.996126       0.103000                    
      -3.264537       4.218628      -4.330497       0.103000                    
      -2.341758       3.876798      -6.246328      -0.006000                    
      -2.984808       3.030604      -6.488041       0.103000                    
      -2.127369       4.441340      -7.153671       0.103000                    
      -0.798726       3.275278      -5.533515      -0.200000                    
       4.448632      -8.357220       3.639481      -0.200000                    
       4.752454      -7.517048       2.073384      -0.006000                    
       5.540788      -8.036695       1.528952       0.103000                    
       3.839386      -7.516084       1.478173       0.103000                    
       5.185632      -6.074969       2.343980      -0.006000                    
       4.397297      -5.555323       2.888412       0.103000                    
       6.098699      -6.075933       2.939191       0.103000                    
       5.489453      -5.234797       0.777883      -0.200000                    
      -7.369245      -5.598235       0.650255      -0.200000                    
      -8.418395      -4.230361       0.121912      -0.006000                    
      -9.462427      -4.542397       0.146501       0.103000                    
      -8.276276      -3.383058       0.792611       0.103000                    
      -8.042653      -3.820522      -1.303296      -0.006000                    
      -6.998621      -3.508485      -1.327886       0.103000                    
      -8.184772      -4.667825      -1.973995       0.103000                    
      -9.091804      -2.452647      -1.831639      -0.200000                    
      -9.473190       1.025633      -5.025554      -0.200000                    
      -8.367673       1.078060      -3.602196      -0.006000                    
      -8.780058       0.467697      -2.798863       0.103000                    
      -7.389410       0.691154      -3.887223       0.103000                    
      -8.223619       2.523184      -3.121360      -0.006000                    
      -7.811226       3.133551      -3.924689       0.103000                    
      -9.201881       2.910079      -2.836323       0.103000                    
      -7.118094       2.575614      -1.697999      -0.200000                    
       5.752550      -0.326176      -7.986827      -0.200000                    
       4.915013       1.206443      -7.539048      -0.006000                    
       5.625697       1.884556      -7.066774       0.103000                    
       4.507630       1.673489      -8.435601       0.103000                    
       3.777798       0.899666      -6.562845      -0.006000                    
       3.067109       0.221562      -7.035118       0.103000                    
       4.185176       0.432628      -5.666290       0.103000                    
       2.940260       2.432285      -6.115065      -0.200000                    
      -2.099008      -6.434965      -4.575260      -0.200000                    
      -2.520483      -5.450765      -6.025966      -0.006000                    
      -1.719600      -4.739648      -6.228085       0.103000                    
      -2.649073      -6.107670      -6.886138       0.103000                    
      -3.822633      -4.691073      -5.765998      -0.006000                    
      -4.623533      -5.402187      -5.563873       0.103000                    
      -3.694048      -4.034159      -4.905826       0.103000                    
      -4.244117      -3.706877      -7.216709      -0.200000                    
       8.583445       3.247917      -7.481687      -0.200000                    
       7.531274       3.797994      -6.124759      -0.006000                    
       6.684425       4.355709      -6.524403       0.103000                    
       7.167876       2.931624      -5.572234       0.103000                    
       8.337518       4.698643      -5.187123      -0.006000                    
       9.184376       4.140932      -4.787475       0.103000                    
       8.700915       5.565012      -5.739648       0.103000                    
       7.285356       5.248724      -3.830192      -0.200000                    
      -9.553409      -4.270210       3.461091      -0.200000                    
      -8.239600      -3.312749       4.240904      -0.006000                    
      -8.335098      -2.265073       3.956024       0.103000                    
      -8.317520      -3.403487       5.324225       0.103000                    
      -6.880336      -3.843638       3.781695      -0.006000                    
      -6.784842      -4.891305       4.066575       0.103000                    
      -6.802426      -3.752894       2.698362       0.103000                    
      -5.566531      -2.886167       4.561499      -0.200000                    
       7.840469      -4.187087      -4.858099      -0.200000                    
       6.062449      -3.895261      -4.924833      -0.006000                    
       5.596348      -4.637057      -5.573218       0.103000                    
       5.643157      -3.974255      -3.921911       0.103000                    
       5.796050      -2.494606      -5.479442      -0.006000                    
       6.262151      -1.752810      -4.831056       0.103000                    
       6.215343      -2.415612      -6.482365       0.103000                    
       4.018030      -2.202781      -5.546176      -0.200000                    
       9.500225      -4.616527      -1.662890      -0.200000                    
       8.739244      -3.013538      -1.343236      -0.006000                    
       7.749490      -2.983649      -1.798693       0.103000                    
       8.649250      -2.861798      -0.267693       0.103000                    
       9.609481      -1.907361      -1.942692      -0.006000                    
      10.599227      -1.937255      -1.487238       0.103000                    
       9.699467      -2.059105      -3.018238       0.103000                    
       8.848497      -0.304386      -1.623042      -0.200000                    
      12.757211       3.202184      -1.145561      -0.200000                    
      11.727726       4.110226       0.023409      -0.006000                    
      11.693316       3.573088       0.971150       0.103000                    
      12.148144       5.103017       0.183241       0.103000                    
      10.311282       4.241449      -0.539463      -0.006000                    
      10.345694       4.778589      -1.487214       0.103000                    
       9.890867       3.248660      -0.699304       0.103000                    
       9.281800       5.149493       0.629498      -0.200000                    
      -5.072491      -7.185581       6.663872      -0.200000                    
      -4.257569      -5.666483       7.192222      -0.006000                    
      -5.008755      -4.937925       7.496851       0.103000                    
      -3.597605      -5.881280       8.032617       0.103000                    
      -3.437316      -5.098011       6.032739      -0.006000                    
      -2.686133      -5.826582       5.728106       0.103000                    
      -4.097282      -4.883215       5.192354       0.103000                    
      -2.622398      -3.578925       6.561085      -0.200000                    
       5.434116       6.802601       7.712032      -0.200000                    
       3.770114       7.128646       7.099051      -0.006000                    
       3.633659       8.202407       6.971190       0.103000                    
       3.630940       6.627846       6.141057       0.103000                    
       2.744105       6.600811       8.103567      -0.006000                    
       2.880559       5.527050       8.231427       0.103000                    
       2.883284       7.101602       9.061561       0.103000                    
       1.080115       6.926851       7.490588      -0.200000                    
      -8.994954      -0.545729       6.233788      -0.200000                    
      -7.267447      -0.663243       6.736586      -0.006000                    
      -7.171260      -0.363363       7.780031       0.103000                    
      -6.924136      -1.691186       6.620615       0.103000                    
      -6.417616       0.259491       5.860987      -0.006000                    
      -6.513802      -0.040389       4.817542       0.103000                    
      -6.760913       1.287429       5.976961       0.103000                    
      -4.690109       0.141976       6.363785      -0.200000                    
      -4.694764      -6.515525       3.193624      -0.200000                    
      -4.135065      -8.159139       2.707714      -0.006000                    
      -3.143592      -8.088182       2.260623       0.103000                    
      -4.092604      -8.803168       3.585993       0.103000                    
      -5.111918      -8.750107       1.689423      -0.006000                    
      -6.103384      -8.821070       2.136504       0.103000                    
      -5.154376      -8.106086       0.811144       0.103000                    
      -4.552212     -10.393727       1.203503      -0.200000                    
      -8.813550       2.311415       3.780956      -0.200000                    
      -9.946906       1.701927       2.518043      -0.006000                    
      -9.980317       0.613129       2.554438       0.103000                    
     -10.943995       2.102555       2.700419       0.103000                    
      -9.462066       2.150844       1.138266      -0.006000                    
      -9.428655       3.239643       1.101872       0.103000                    
      -8.464975       1.750216       0.955890       0.103000                    
     -10.595423       1.541355      -0.124647      -0.200000                    
      -7.960612       7.639914       4.062927      -0.200000                    
      -7.721546       5.893444       4.441999      -0.006000                    
      -8.292288       5.633452       5.333406       0.103000                    
      -8.063698       5.288960       3.602071       0.103000                    
      -6.236381       5.624485       4.691622      -0.006000                    
      -5.665631       5.884481       3.800218       0.103000                    
      -5.894213       6.228968       5.531544       0.103000                    
      -5.997306       3.878021       5.070698      -0.200000                    
       7.990171       9.005598      -0.678697      -0.200000                    
       9.124138       7.973448      -1.627177      -0.006000                    
      10.075750       7.900143      -1.100845       0.103000                    
       8.696724       6.977881      -1.745950       0.103000                    
       9.350958       8.598105      -3.005117      -0.006000                    
       8.399353       8.671415      -3.531446       0.103000                    
       9.778369       9.593683      -2.886354       0.103000                    
      10.484925       7.565956      -3.953597      -0.200000                    
      -0.198162      -5.201246       8.303254      -0.200000                    
       0.762698      -3.739435       8.740140      -0.006000                    
       0.305352      -3.246792       9.598059       0.103000                    
       1.781165      -4.035469       8.991178       0.103000                    
       0.790587      -2.774172       7.553588      -0.006000                    
       1.247932      -3.266814       6.695670       0.103000                    
      -0.227886      -2.478129       7.302552       0.103000                    
       1.751449      -1.312359       7.990465      -0.200000                    
      12.721821       0.741298       5.477688      -0.200000                    
      11.994020       0.651384       3.830564      -0.006000                    
      12.494229       1.362020       3.172760       0.103000                    
      12.113853      -0.357008       3.434670       0.103000                    
      10.505071       0.993198       3.911620      -0.006000                    
      10.004862       0.282562       4.569425       0.103000                    
      10.385236       2.001590       4.307514       0.103000                    
       9.777268       0.903284       2.264497      -0.200000                    
      -2.627281       8.923480      -6.037194      -0.200000                    
      -3.568004       9.687913      -4.702444      -0.006000                    
      -2.912941       9.860877      -3.848704       0.103000                    
      -3.978042      10.638068      -5.044477       0.103000                    
      -4.711066       8.759629      -4.287627      -0.006000                    
      -5.366128       8.586664      -5.141367       0.103000                    
      -4.301031       7.809472      -3.945585       0.103000                    
      -5.651788       9.524061      -2.952878      -0.200000                    
       0.910811      13.369288      -2.684753      -0.200000                    
       2.691798      13.095897      -2.750734      -0.006000                    
       3.101271      13.579594      -3.637475       0.103000                    
       3.157430      13.516375      -1.859483       0.103000                    
       2.975175      11.593847      -2.813090      -0.006000                    
       2.565700      11.110147      -1.926339       0.103000                    
       2.509547      11.173361      -3.704340       0.103000                    
       4.756159      11.320454      -2.879061      -0.200000                    
       2.372148       6.261708      -6.846619      -0.200000                    
       4.125992       5.976841      -7.152645      -0.006000                    
       4.705702       6.803345      -6.741852       0.103000                    
       4.431781       5.045799      -6.675574       0.103000                    
       4.371778       5.881691      -8.659612      -0.006000                    
       3.792076       5.055180      -9.070415       0.103000                    
       4.065997       6.812727      -9.136693       0.103000                    
       6.125621       5.596813      -8.965652      -0.200000                    
       6.650649       2.882966       9.460916      -0.200000                    
       6.541359       2.366814       7.736795      -0.006000                    
       5.559289       1.933156       7.548672       0.103000                    
       6.687485       3.230830       7.088661       0.103000                    
       7.622623       1.324059       7.447147      -0.006000                    
       8.604694       1.757718       7.635271       0.103000                    
       7.476496       0.460044       8.095281       0.103000                    
       7.513326       0.807905       5.723023      -0.200000                    
      -7.245095      -4.123610      -4.457314      -0.200000                    
      -8.003551      -2.780861      -5.391523      -0.006000                    
      -8.158821      -1.924164      -4.735848       0.103000                    
      -7.348353      -2.494973      -6.214254       0.103000                    
      -9.349849      -3.245338      -5.950247      -0.006000                    
      -9.194579      -4.102035      -6.605922       0.103000                    
     -10.005046      -3.531226      -5.127517       0.103000                    
     -10.108306      -1.902589      -6.884457      -0.200000                    
       2.941153      13.776670       0.575820      -0.200000                    