%nprocshared=4                                                                       
%mem=8GB                                                                             
#P pop=chelpg cam-b3lyp/gen scf=qc int=ultrafine charge td(nstates=10)               
                                                                                     
pNA CAM-B3LYP def2-TZVPD Single point - solvent def2-SV(P)                           
                                                                                     
0 1                                                                                  
 C       1.389235       0.000000      -0.000000                                 
 C       0.000000       0.000000      -0.000000                                 
 C      -0.711164       1.193419       0.000000                                 
 C      -0.034074       2.386367       0.000141                                 
 C       1.370482       2.412065       0.000933                                 
 C       2.067428       1.192342       0.000144                                 
 H       1.924301      -0.937208       0.000967                                 
 H      -1.790186       1.173300       0.000962                                 
 H      -0.583208       3.318526      -0.000772                                 
 H       3.149318       1.197759      -0.000767                                 
 N      -0.711160      -1.251627       0.001756                                 
 O      -1.932441      -1.229701       0.002542                                 
 O      -0.067142      -2.289538       0.002483                                 
 N       2.040236       3.590780      -0.024683                                 
 H       1.546357       4.451509       0.132529                                 
 H       3.032458       3.607145       0.132525                                 
Cl       2.319406       4.388422       4.569337                                 
 C       3.415867       3.959861       3.203654                                 
 H       2.830654       3.836750       2.292434                                 
 H       4.147317       4.755240       3.061285                                 
 C       4.141626       2.651696       3.523608                                 
 H       4.726835       2.774812       4.434820                                 
 H       3.410172       1.856321       3.665969                                 
Cl       5.238084       2.223140       2.157917                                 
Cl       2.602079       6.511260       0.667646                                 
 C       1.094085       7.466364       0.413467                                 
 H       1.325234       8.365844      -0.156966                                 
 H       0.370273       6.863880      -0.135184                                 
 C       0.505390       7.860330       1.769418                                 
 H       0.274245       6.960846       2.339859                                 
 H       1.229206       8.462809       2.318076                                 
Cl      -1.002600       8.815431       1.515246                                 
Cl       2.540820      -6.246176       0.868582                                 
 C       1.396408      -5.876751       2.211990                                 
 H       0.803646      -6.762874       2.438667                                 
 H       1.958611      -5.579247       3.097056                                 
 C       0.467451      -4.736347       1.791435                                 
 H       1.060223      -3.850222       1.564754                                 
 H      -0.094742      -5.033849       0.906366                                 
Cl      -0.676957      -4.366935       3.134847                                 
Cl      -0.399063       4.786023      -2.987423                                 
 C       1.369912       4.894606      -3.318825                                 
 H       1.562336       5.725353      -3.997638                                 
 H       1.905649       5.057575      -2.383770                                 
 C       1.849510       3.591136      -3.960184                                 
 H       1.657086       2.760388      -3.281372                                 
 H       1.313777       3.428163      -4.895232                                 
Cl       3.618484       3.699718      -4.291586                                 
Cl      -0.196972       4.288655       2.413558                                 
 C      -1.409565       3.192314       3.174123                                 
 H      -1.653081       2.384793       2.483781                                 
 H      -0.996318       2.773893       4.091761                                 
 C      -2.677814       3.983032       3.500767                                 
 H      -2.434308       4.790551       4.191112                                 
 H      -3.091070       4.401451       2.583131                                 
Cl      -3.890407       2.886691       4.261331                                 
                                                                                
      -0.434457      -0.343546       3.540889      -0.200000                    
      -2.199158      -0.413855       3.177783      -0.006000                    
      -2.483063       0.454898       2.583967       0.103000                    
      -2.419508      -1.323591       2.619488       0.103000                    
      -2.989588      -0.415971       4.487596      -0.006000                    
      -2.705673      -1.284713       5.081413       0.103000                    
      -2.769237       0.493775       5.045896       0.103000                    
      -4.754275      -0.486282       4.124495      -0.200000                    
       5.026649      -2.528361       0.803283      -0.200000                    
       5.733701      -1.286442      -0.296061      -0.006000                    
       4.938347      -0.652478      -0.687717       0.103000                    
       6.446871      -0.675179       0.256852       0.103000                    
       6.449680      -1.980671      -1.456162      -0.006000                    
       7.245033      -2.614636      -1.064506       0.103000                    
       5.736510      -2.591935      -2.009075       0.103000                    
       7.156732      -0.738752      -2.555506      -0.200000                    
      -2.620414      -5.512752      -0.284805      -0.200000                    
      -3.182167      -4.650118       1.195449      -0.006000                    
      -2.836809      -5.184166       2.080591       0.103000                    
      -2.778799      -3.637594       1.201320       0.103000                    
      -4.710762      -4.589527       1.201175      -0.006000                    
      -5.056121      -4.055480       0.316034       0.103000                    
      -5.114127      -5.602056       1.195313       0.103000                    
      -5.272515      -3.726903       2.681425      -0.200000                    
      -7.678163      -0.149572      -0.456728      -0.200000                    
      -6.681291       1.268481       0.039496      -0.006000                    
      -6.645796       1.991069      -0.775703       0.103000                    
      -7.124631       1.734528       0.919371       0.103000                    
      -5.261884       0.803330       0.370050      -0.006000                    
      -5.297382       0.080746       1.185241       0.103000                    
      -4.818546       0.337287      -0.509833       0.103000                    
      -4.265005       2.221388       0.866262      -0.200000                    
      -0.437905       1.051847      -4.508252      -0.200000                    
      -2.059925       0.573742      -3.882651      -0.006000                    
      -2.518232      -0.139223      -4.567901       0.103000                    
      -1.949839       0.114577      -2.900285       0.103000                    
      -2.948342       1.813945      -3.768594      -0.006000                    
      -2.490035       2.526911      -3.083344       0.103000                    
      -3.058429       2.273110      -4.750960       0.103000                    
      -4.570353       1.335843      -3.142997      -0.200000                    
       1.297715      -6.149082      -4.142589      -0.200000                    
       1.297271      -4.452643      -3.531864      -0.006000                    
       0.790664      -3.807863      -4.249866       0.103000                    
       0.776787      -4.410781      -2.575158       0.103000                    
       2.739449      -3.976330      -3.348443      -0.006000                    
       3.246056      -4.621109      -2.630440       0.103000                    
       3.259936      -4.018195      -4.305140       0.103000                    
       2.738996      -2.279891      -2.737715      -0.200000                    
       8.142890       4.663808      -4.380901      -0.200000                    
       7.263588       4.457696      -2.820338      -0.006000                    
       7.869151       4.856150      -2.006436       0.103000                    
       6.315317       4.993279      -2.863842       0.103000                    
       6.998164       2.970841      -2.577110      -0.006000                    
       6.392597       2.572392      -3.391020       0.103000                    
       7.946435       2.435257      -2.533606       0.103000                    
       6.118857       2.764733      -1.016554      -0.200000                    
      -4.572710      -2.061015      -2.441309      -0.200000                    
      -5.262101      -3.363779      -3.479764      -0.006000                    
      -4.862393      -3.273415      -4.489739       0.103000                    
      -4.993948      -4.336813      -3.068347       0.103000                    
      -6.785522      -3.230447      -3.521030      -0.006000                    
      -7.185230      -3.320811      -2.511054       0.103000                    
      -7.053675      -2.257421      -3.932451       0.103000                    
      -7.474913      -4.533211      -4.559484      -0.200000                    
      -3.432426       6.387183       0.232738      -0.200000                    
      -3.451872       6.910856      -1.492444      -0.006000                    
      -4.180551       7.711112      -1.621299       0.103000                    
      -2.462567       7.271135      -1.774220       0.103000                    
      -3.834507       5.725638      -2.380828      -0.006000                    
      -3.105832       4.925376      -2.251986       0.103000                    
      -4.823826       5.365362      -2.099057       0.103000                    
      -3.853958       6.249315      -4.106019      -0.200000                    
       6.279694       6.576099       1.624411      -0.200000                    
       7.410851       5.527216       2.557804      -0.006000                    
       8.162883       6.147285       3.045534       0.103000                    
       6.853169       4.971597       3.311605       0.103000                    
       8.098536       4.545921       1.606733      -0.006000                    
       7.346500       3.925865       1.119000       0.103000                    
       8.656215       5.101543       0.852923       0.103000                    
       9.229693       3.497047       2.540130      -0.200000                    
       4.665403       7.228631      -2.155209      -0.200000                    
       3.991961       8.803862      -2.717447      -0.006000                    
       2.904093       8.776827      -2.656080       0.103000                    
       4.371825       9.607515      -2.086749       0.103000                    
       4.414424       9.050820      -4.166893      -0.006000                    
       5.502282       9.077853      -4.228255       0.103000                    
       4.034550       8.247164      -4.797586       0.103000                    
       3.740972      10.626049      -4.729126      -0.200000                    
       8.151559      -2.044705       2.421914      -0.200000                    
       8.283715      -0.638344       3.542452      -0.006000                    
       9.251747      -0.661808       4.042737       0.103000                    
       8.189606       0.288004       2.975930       0.103000                    
       7.168509      -0.712104       4.587088      -0.006000                    
       6.200487      -0.688639       4.086799       0.103000                    
       7.262619      -1.638453       5.153610       0.103000                    
       7.300675       0.694258       5.707623      -0.200000                    
       2.259860      -5.759326       6.172110      -0.200000                    
       3.498591      -4.510012       5.777614      -0.006000                    
       4.412670      -4.715816       6.334418       0.103000                    
       3.710878      -4.533300       4.708825       0.103000                    
       2.968563      -3.127292       6.161690      -0.006000                    
       2.054483      -2.921488       5.604886       0.103000                    
       2.756265      -3.104006       7.230482       0.103000                    
       4.207296      -1.877982       5.767201      -0.200000                    
      -2.043837       3.931400       8.429733      -0.200000                    
      -1.507859       2.604958       7.332328      -0.006000                    
      -1.725873       1.641528       7.793007       0.103000                    
      -2.037614       2.682168       6.382936       0.103000                    
      -0.002508       2.723209       7.086804      -0.006000                    
       0.215497       3.686636       6.626129       0.103000                    
       0.527247       2.645990       8.036192       0.103000                    
       0.533461       1.396765       5.989403      -0.200000                    
      -0.154626       8.339226      -4.348343      -0.200000                    
      -0.323591       9.346416      -5.834275      -0.006000                    
      -0.028865      10.372293      -5.613614       0.103000                    
       0.316395       8.945309      -6.620080       0.103000                    
      -1.779851       9.324278      -6.302436      -0.006000                    
      -2.074577       8.298402      -6.523098       0.103000                    
      -2.419837       9.725393      -5.516625       0.103000                    
      -1.948816      10.331468      -7.788368      -0.200000                    
      -4.283005       2.673790      -7.534557      -0.200000                    
      -3.397456       4.228389      -7.758121      -0.006000                    
      -3.327983       4.457575      -8.821425       0.103000                    
      -3.933350       5.028699      -7.247976       0.103000                    
      -1.990342       4.102686      -7.171140      -0.006000                    
      -2.059819       3.873495      -6.107848       0.103000                    
      -1.454448       3.302368      -7.681290       0.103000                    
      -1.104793       5.657277      -7.394709      -0.200000                    
       0.269829      13.718471       1.838253      -0.200000                    
       1.357104      12.280679       1.800247      -0.006000                    
       2.170549      12.421054       2.512008       0.103000                    
       0.790156      11.388962       2.067325       0.103000                    
       1.934302      12.114879       0.393226      -0.006000                    
       1.120858      11.974504      -0.318535       0.103000                    
       2.501250      13.006596       0.126148       0.103000                    
       3.021577      10.677094       0.355224      -0.200000                    
       7.644803      10.461001      -0.884625      -0.200000                    
       7.795565      10.216065       0.895294      -0.006000                    
       8.328293       9.285427       1.090395       0.103000                    
       8.346950      11.048923       1.331509       0.103000                    
       6.400993      10.145384       1.520231      -0.006000                    
       5.868265      11.076022       1.325130       0.103000                    
       5.849621       9.312522       1.084020       0.103000                    
       6.551754       9.900448       3.300150      -0.200000                    
       0.663694      -9.268473       0.167128      -0.200000                    
       1.564360      -8.996438      -1.370950      -0.006000                    
       0.866982      -8.693769      -2.151985       0.103000                    
       2.307456      -8.212851      -1.223432       0.103000                    
       2.265048     -10.291050      -1.787392      -0.006000                    
       2.962422     -10.593714      -1.006366       0.103000                    
       1.521957     -11.074639      -1.934927       0.103000                    
       3.165710     -10.019011      -3.325479      -0.200000                    
      -0.906348      -1.196698       7.793078      -0.200000                    
      -0.637893      -2.936376       7.402766      -0.006000                    
      -0.074268      -3.017729       6.473433       0.103000                    
      -0.077719      -3.407897       8.210142       0.103000                    
      -1.988207      -3.637312       7.242596      -0.006000                    
      -2.551819      -3.555962       8.171934       0.103000                    
      -2.548368      -3.165794       6.435225       0.103000                    
      -1.719753      -5.376989       6.852284      -0.200000                    
       5.965276      -8.976136       0.628574      -0.200000                    
       5.503454      -8.303058      -0.979080      -0.006000                    
       5.884071      -8.951885      -1.767846       0.103000                    
       4.417456      -8.243340      -1.049869       0.103000                    
       6.101936      -6.904054      -1.137186      -0.006000                    
       5.721314      -6.255222      -0.348430       0.103000                    
       7.187929      -6.963768      -1.066406       0.103000                    
       5.640110      -6.230972      -2.744849      -0.200000                    
      11.884783       2.225327      -2.788577      -0.200000                    
      10.823526       1.102679      -1.858877      -0.006000                    
       9.800636       1.180896      -2.226954       0.103000                    
      11.177914       0.079668      -1.984553       0.103000                    
      10.861209       1.476238      -0.375834      -0.006000                    
      11.884103       1.398026      -0.007744       0.103000                    
      10.506825       2.499253      -0.250145       0.103000                    
       9.799946       0.353584       0.553877      -0.200000                    
       2.575805      -2.392123      -8.336035      -0.200000                    
       1.232772      -1.249675      -8.712797      -0.006000                    
       1.332116      -0.897695      -9.739529       0.103000                    
       0.277143      -1.760221      -8.594358       0.103000                    
       1.294879      -0.056716      -7.757100      -0.006000                    
       1.195539      -0.408692      -6.730355       0.103000                    
       2.250498       0.453837      -7.875531       0.103000                    
      -0.048163       1.085739      -8.133854      -0.200000                    
       9.044287      -6.771326       1.561300      -0.200000                    
       8.461828      -6.015743       3.091204      -0.006000                    
       8.333340      -6.786246       3.851313       0.103000                    
       9.191645      -5.283247       3.435762       0.103000                    
       7.122565      -5.320654       2.839002      -0.006000                    
       7.251049      -4.550156       2.078903       0.103000                    
       6.392740      -6.053151       2.494447       0.103000                    
       6.540097      -4.565073       4.368908      -0.200000                    
      -8.233401      -3.782969       0.083394      -0.200000                    
      -9.603189      -3.610742       1.243134      -0.006000                    
     -10.511863      -4.012316       0.794802       0.103000                    
      -9.376303      -4.158469       2.157706       0.103000                    
      -9.808905      -2.131171       1.573213      -0.006000                    
      -8.900228      -1.729602       2.021554       0.103000                    
     -10.035787      -1.583449       0.658650       0.103000                    
     -11.178679      -1.958938       2.732963      -0.200000                    
      -1.735186      -2.647559      -7.131139      -0.200000                    
      -0.776908      -4.153729      -7.384302      -0.006000                    
      -0.191854      -4.062920      -8.299405       0.103000                    
      -0.106996      -4.304990      -6.538005       0.103000                    
      -1.725719      -5.347936      -7.502702      -0.006000                    
      -2.310778      -5.438750      -6.587612       0.103000                    
      -2.395635      -5.196671      -8.349008       0.103000                    
      -0.767442      -6.854115      -7.755870      -0.200000                    
       2.836008       8.415576       5.577276      -0.200000                    
       1.798941       8.755885       7.012398      -0.006000                    
       2.351654       8.525699       7.923175       0.103000                    
       1.515956       9.808442       7.015076       0.103000                    
       0.539439       7.889920       6.948252      -0.006000                    
      -0.013274       8.120107       6.037475       0.103000                    
       0.822424       6.837354       6.945569       0.103000                    
      -0.497628       8.230227       8.383372      -0.200000                    
       7.020083       1.323226     -10.041270      -0.200000                    
       5.939706       0.837627      -8.681907      -0.006000                    
       5.490639       1.726524      -8.239048       0.103000                    
       5.154129       0.182405      -9.058076       0.103000                    
       6.756223       0.097051      -7.621147      -0.006000                    
       7.205291      -0.791856      -8.064010       0.103000                    
       7.541798       0.752277      -7.244987       0.103000                    
       5.675846      -0.388557      -6.261787      -0.200000                    
      -5.704940       9.149872       4.056995      -0.200000                    
      -4.984683       9.054494       2.406846      -0.006000                    
      -3.900444       9.140140       2.477871       0.103000                    
      -5.244831       8.099121       1.951269       0.103000                    
      -5.530417      10.194967       1.545548      -0.006000                    
      -6.614644      10.109319       1.474527       0.103000                    
      -5.270260      11.150341       2.001121       0.103000                    
      -4.810160      10.099589      -0.104602      -0.200000                    
      -9.512766       3.681175       1.930160      -0.200000                    
      -9.760140       2.753650       3.456403      -0.006000                    
      -9.301890       3.290874       4.286666       0.103000                    
     -10.827803       2.638541       3.642886       0.103000                    
      -9.114290       1.373133       3.324518      -0.006000                    
      -9.572531       0.835910       2.494251       0.103000                    
      -8.046633       1.488237       3.138023       0.103000                    
      -9.361670       0.445603       4.850748      -0.200000                    
     -10.509559       9.174733      -0.051961      -0.200000                    
      -9.322056       7.875919       0.340257      -0.006000                    
      -9.062388       7.927861       1.397534       0.103000                    
      -9.761830       6.902990       0.121273       0.103000                    
      -8.060605       8.066416      -0.504017      -0.006000                    
      -8.320262       8.014474      -1.561297       0.103000                    
      -7.620834       9.039340      -0.285046       0.103000                    
      -6.873106       6.767596      -0.111812      -0.200000                    
       6.550812       5.939844       5.935931      -0.200000                    
       5.700823       7.170890       6.942422      -0.006000                    
       5.922817       8.167800       6.561864       0.103000                    
       4.625815       6.996351       6.899368       0.103000                    
       6.177048       7.061312       8.392097      -0.006000                    
       5.955053       6.064402       8.772655       0.103000                    
       7.252056       7.235851       8.435150       0.103000                    
       5.327059       8.292359       9.398587      -0.200000                    
       5.272859       1.977034       8.696495      -0.200000                    
       4.059602       3.053032       7.908354      -0.006000                    
       4.553921       3.670177       7.158193       0.103000                    
       3.291048       2.445664       7.430484       0.103000                    
       3.414417       3.953130       8.963819      -0.006000                    
       2.920098       3.335985       9.713980       0.103000                    
       4.182971       4.560498       9.441689       0.103000                    
       2.201160       5.029128       8.175678      -0.200000                    
      -3.115864       7.015920       5.777559      -0.200000                    
      -4.454555       6.804159       6.966652      -0.006000                    
      -5.229795       7.546542       6.777398       0.103000                    
      -4.876205       5.804216       6.865176       0.103000                    
      -3.910435       6.986042       8.384836      -0.006000                    
      -3.135196       6.243650       8.574087       0.103000                    
      -3.488786       7.985986       8.486314       0.103000                    
      -5.249124       6.774268       9.573934      -0.200000                    
      -6.674844      -7.926446       7.287621      -0.200000                    
      -5.229193      -8.128848       6.229293      -0.006000                    
      -4.376960      -8.439565       6.833477       0.103000                    
      -5.434966      -8.887014       5.473803       0.103000                    
      -4.909474      -6.799496       5.543052      -0.006000                    
      -5.761717      -6.488790       4.938867       0.103000                    
      -4.703701      -6.041338       6.298537       0.103000                    
      -3.463836      -7.001894       4.484717      -0.200000                    
      12.034409       8.311946      -4.132068      -0.200000                    
      11.400478       8.072701      -2.461215      -0.006000                    
      12.162938       7.591980      -1.848425       0.103000                    
      11.142285       9.039124      -2.028444       0.103000                    
      10.153856       7.187351      -2.510688      -0.006000                    
       9.391394       7.668086      -3.123483       0.103000                    
      10.412049       6.220938      -2.943455       0.103000                    
       9.519927       6.948116      -0.839831      -0.200000                    
      -5.725112      -8.320126      -8.212575      -0.200000                    
      -4.547501      -7.372993      -7.229170      -0.006000                    
      -3.545685      -7.500972      -7.638983       0.103000                    
      -4.818560      -6.317618      -7.254444       0.103000                    
      -4.573769      -7.871202      -5.782991      -0.006000                    
      -5.575573      -7.743235      -5.373178       0.103000                    
      -4.302711      -8.926585      -5.757722       0.103000                    
      -3.396146      -6.924080      -4.799586      -0.200000                    
      -4.962647      -8.063366      -0.522531      -0.200000                    
      -5.134031      -9.617833       0.374749      -0.006000                    
      -6.152870      -9.989623       0.266653       0.103000                    
      -4.435046     -10.349927      -0.029473       0.103000                    
      -4.830340      -9.387538       1.856354      -0.006000                    
      -3.811507      -9.015753       1.964461       0.103000                    
      -5.529325      -8.655442       2.260576       0.103000                    
      -5.001734     -10.942015       2.753632      -0.200000                    
      12.030454      -2.859694       0.292675      -0.200000                    