%nprocshared=4                                                                       
%mem=8GB                                                                             
#P pop=chelpg cam-b3lyp/gen scf=qc int=ultrafine charge td(nstates=10)               
                                                                                     
pNA CAM-B3LYP def2-TZVPD Single point - solvent def2-SV(P)                           
                                                                                     
0 1                                                                                  
 C       1.389235       0.000000      -0.000000                                 
 C       0.000000       0.000000      -0.000000                                 
 C      -0.711164       1.193419       0.000000                                 
 C      -0.034074       2.386367       0.000141                                 
 C       1.370482       2.412065       0.000933                                 
 C       2.067428       1.192342       0.000144                                 
 H       1.924301      -0.937208       0.000967                                 
 H      -1.790186       1.173300       0.000962                                 
 H      -0.583208       3.318526      -0.000772                                 
 H       3.149318       1.197759      -0.000767                                 
 N      -0.711160      -1.251627       0.001756                                 
 O      -1.932441      -1.229701       0.002542                                 
 O      -0.067142      -2.289538       0.002483                                 
 N       2.040236       3.590780      -0.024683                                 
 H       1.546357       4.451509       0.132529                                 
 H       3.032458       3.607145       0.132525                                 
Cl       1.743355      -5.512027      -3.263930                                 
 C       2.638442      -5.527927      -1.698846                                 
 H       2.233428      -6.309613      -1.056333                                 
 H       3.694500      -5.721972      -1.885940                                 
 C       2.484184      -4.171040      -1.009387                                 
 H       2.889198      -3.389354      -1.651900                                 
 H       1.428130      -3.976986      -0.822294                                 
Cl       3.379271      -4.186941       0.555698                                 
Cl       1.236142       5.105206       4.516265                                 
 C       0.588627       5.424359       2.864072                                 
 H       1.328806       5.974924       2.283584                                 
 H       0.370034       4.477682       2.370107                                 
 C      -0.693786       6.251703       2.970005                                 
 H      -1.433960       5.701136       3.550501                                 
 H      -0.475194       7.198380       3.463970                                 
Cl      -1.341297       6.570854       1.317819                                 
Cl      -1.010473      -7.116737       1.491211                                 
 C      -0.696061      -5.360041       1.748365                                 
 H       0.236579      -5.234283       2.298225                                 
 H      -0.619473      -4.859318       0.783301                                 
 C      -1.846451      -4.748082       2.549882                                 
 H      -2.779096      -4.873850       2.000023                                 
 H      -1.923049      -5.248812       3.514939                                 
Cl      -1.532049      -2.991393       2.807029                                 
Cl       0.422925       2.161622      -5.544845                                 
 C       0.164232       2.988762      -3.963755                                 
 H       0.071012       2.243104      -3.174300                                 
 H       1.012184       3.639555      -3.750874                                 
 C      -1.115528       3.824443      -4.028838                                 
 H      -1.022304       4.570109      -4.818293                                 
 H      -1.963481       3.173650      -4.241718                                 
Cl      -1.374221       4.651583      -2.447748                                 
Cl       1.529798       9.694705       0.770936                                 
 C       1.298573       8.266954      -0.305634                                 
 H       1.628254       7.365311       0.210415                                 
 H       0.243796       8.173117      -0.563581                                 
 C       2.120664       8.452559      -1.582369                                 
 H       1.790984       9.354203      -2.098418                                 
 H       3.175448       8.546393      -1.324428                                 
Cl       1.889444       7.024818      -2.658939                                 
                                                                                
       4.994872       3.665851       2.366384      -0.200000                    
       6.677581       3.306115       1.827853      -0.006000                    
       7.183609       2.711891       2.588650       0.103000                    
       6.648405       2.749190       0.891423       0.103000                    
       7.436888       4.617396       1.617219      -0.006000                    
       6.930859       5.211622       0.856436       0.103000                    
       7.466063       5.174323       2.553663       0.103000                    
       9.119602       4.257671       1.078701      -0.200000                    
       6.499755       8.600960      -3.563024      -0.200000                    
       5.638958       7.030273      -3.355949      -0.006000                    
       4.573612       7.172960      -3.536530       0.103000                    
       6.033743       6.303048      -4.065321       0.103000                    
       5.849741       6.517365      -1.930178      -0.006000                    
       6.915097       6.374685      -1.749590       0.103000                    
       5.454966       7.244598      -1.220799       0.103000                    
       4.988944       4.946678      -1.723102      -0.200000                    
      -4.107510       3.218477       4.110077      -0.200000                    
      -2.676512       2.504679       3.277191      -0.006000                    
      -2.966459       1.574057       2.789493       0.103000                    
      -2.303391       3.205541       2.530523       0.103000                    
      -1.578079       2.221171       4.303581      -0.006000                    
      -1.288129       3.151781       4.791274       0.103000                    
      -1.951192       1.520305       5.050242       0.103000                    
      -0.147085       1.507365       3.470695      -0.200000                    
      -8.475372      -0.574641      -0.876926      -0.200000                    
      -6.806614       0.094339      -1.013299      -0.006000                    
      -6.837196       1.040297      -1.553815       0.103000                    
      -6.398053       0.258375      -0.016251       0.103000                    
      -5.920310      -0.896500      -1.770312      -0.006000                    
      -5.889734      -1.842454      -1.229790       0.103000                    
      -6.328876      -1.060534      -2.767368       0.103000                    
      -4.251551      -0.227520      -1.906685      -0.200000                    
      -5.126125      -4.168960      -4.266828      -0.200000                    
      -4.386453      -4.992741      -2.843754      -0.006000                    
      -5.098804      -5.003230      -2.018918       0.103000                    
      -4.125183      -6.016461      -3.111510       0.103000                    
      -3.124728      -4.239860      -2.417657      -0.006000                    
      -2.412384      -4.229369      -3.242501       0.103000                    
      -3.385994      -3.216131      -2.149902       0.103000                    
      -2.385052      -5.063632      -0.994585      -0.200000                    
      -6.545519       5.196825      -3.009527      -0.200000                    
      -5.051402       5.246505      -2.001533      -0.006000                    
      -4.196373       4.938867      -2.603399       0.103000                    
      -4.892763       6.261129      -1.636370       0.103000                    
      -5.206226       4.295766      -0.813040      -0.006000                    
      -6.061260       4.603395      -0.211173       0.103000                    
      -5.364869       3.281132      -1.178202       0.103000                    
      -3.712109       4.345446       0.194954      -0.200000                    
       3.411150      -0.144917       3.069270      -0.200000                    
       3.543656      -1.838699       3.672975      -0.006000                    
       3.615254      -2.521757       2.826661       0.103000                    
       4.434164      -1.934701       4.294032       0.103000                    
       2.304892      -2.182928       4.502032      -0.006000                    
       2.233283      -1.499873       5.348352       0.103000                    
       1.414367      -2.086928       3.880974       0.103000                    
       2.437386      -3.876702       5.105735      -0.200000                    
       1.488110      -0.889504      -3.623990      -0.200000                    
       0.402401      -1.949132      -4.598313      -0.006000                    
       0.680559      -1.885538      -5.650237       0.103000                    
       0.499611      -2.980050      -4.258239       0.103000                    
      -1.046799      -1.490385      -4.425984      -0.006000                    
      -1.324951      -1.553971      -3.374062       0.103000                    
      -1.144009      -0.459468      -4.766058       0.103000                    
      -2.132509      -2.550013      -5.400308      -0.200000                    
       6.281940       1.177974      -1.454381      -0.200000                    
       7.665342       0.028426      -1.579688      -0.006000                    
       8.067834       0.052919      -2.592290       0.103000                    
       8.442849       0.316741      -0.872344       0.103000                    
       7.182919      -1.387089      -1.257392      -0.006000                    
       6.780421      -1.411580      -0.244798       0.103000                    
       6.405411      -1.675393      -1.964745       0.103000                    
       8.566321      -2.536638      -1.382699      -0.200000                    
      -5.246761      -0.002647       5.426516      -0.200000                    
      -5.815484      -1.490718       4.582021      -0.006000                    
      -5.293444      -2.358914       4.984034       0.103000                    
      -6.888147      -1.608309       4.735337       0.103000                    
      -5.525134      -1.369905       3.084867      -0.006000                    
      -6.047169      -0.501701       2.682853       0.103000                    
      -4.452470      -1.252314       2.931551       0.103000                    
      -6.093852      -2.857968       2.240371      -0.200000                    
       4.884748       0.401582      -5.241174      -0.200000                    
       4.408876       2.087753      -5.666980      -0.006000                    
       5.213205       2.561445      -6.229631       0.103000                    
       3.503588       2.067846      -6.273619       0.103000                    
       4.146498       2.882373      -4.386311      -0.006000                    
       3.342164       2.408672      -3.823657       0.103000                    
       5.051786       2.902279      -3.779672       0.103000                    
       3.670626       4.568543      -4.812116      -0.200000                    
       4.780248       8.288099       5.725244      -0.200000                    
       5.134406       8.023172       3.977304      -0.006000                    
       5.438609       8.965147       3.521138       0.103000                    
       5.937860       7.293764       3.875599       0.103000                    
       3.879393       7.499632       3.276385      -0.006000                    
       3.575172       6.557654       3.732550       0.103000                    
       3.075932       8.229044       3.378095       0.103000                    
       4.233533       7.234702       1.528443      -0.200000                    
       6.293609      -0.471124       6.779829      -0.200000                    
       7.732547      -0.198562       5.728155      -0.006000                    
       8.267715       0.688427       6.066945       0.103000                    
       8.392291      -1.064363       5.783135       0.103000                    
       7.276310       0.003170       4.281947      -0.006000                    
       6.741149      -0.883821       3.943165       0.103000                    
       6.616562       0.868963       4.226968       0.103000                    
       8.715250       0.275721       3.230282      -0.200000                    
       3.718617      -3.190646      -5.261528      -0.200000                    
       4.916365      -4.243536      -4.420280      -0.006000                    
       4.686257      -4.277123      -3.355450       0.103000                    
       4.869181      -5.250630      -4.834364       0.103000                    
       6.322959      -3.676071      -4.619808      -0.006000                    
       6.553068      -3.642484      -5.684638       0.103000                    
       6.370154      -2.668970      -4.205716       0.103000                    
       7.520707      -4.728961      -3.778559      -0.200000                    
      -1.587671      -0.122194       7.457358      -0.200000                    
      -1.049801      -1.578269       6.540086      -0.006000                    
      -1.323726      -1.468686       5.490860       0.103000                    
       0.031869      -1.682088       6.624525       0.103000                    
      -1.727525      -2.822930       7.116178      -0.006000                    
      -1.453607      -2.932508       8.165408       0.103000                    
      -2.809212      -2.719113       7.031738       0.103000                    
      -1.189666      -4.279009       6.198912      -0.200000                    
      -3.592308       7.159255      -4.231467      -0.200000                    
      -2.054257       8.099772      -4.255691      -0.006000                    
      -1.209832       7.418529      -4.151853       0.103000                    
      -1.972563       8.638850      -5.199432       0.103000                    
      -2.048793       9.098212      -3.096598      -0.006000                    
      -2.893223       9.779448      -3.200435       0.103000                    
      -2.130480       8.559131      -2.152863       0.103000                    
      -0.510734      10.038727      -3.120827      -0.200000                    
       4.439789      11.169663      -2.334812      -0.200000                    
       4.603997      11.703763      -0.620530      -0.006000                    
       5.418591      12.423468      -0.540402       0.103000                    
       3.674126      12.169308      -0.294093       0.103000                    
       4.905379      10.492685       0.264259      -0.006000                    
       4.090791       9.772978       0.184138       0.103000                    
       5.835249      10.027141      -0.062178       0.103000                    
       5.069599      11.026790       1.978533      -0.200000                    
      -3.652844       1.208255      -6.401743      -0.200000                    
      -5.185390       0.322014      -6.060075      -0.006000                    
      -5.601870      -0.057220      -6.993175       0.103000                    
      -4.981373      -0.511272      -5.387822       0.103000                    
      -6.188504       1.272343      -5.403531      -0.006000                    
      -5.772022       1.651567      -4.470421       0.103000                    
      -6.392513       2.105625      -6.075789       0.103000                    
      -7.721042       0.386098      -5.061868      -0.200000                    
      -5.312756       9.919806       0.023157      -0.200000                    
      -4.900072       8.786726       1.363538      -0.006000                    
      -3.950769       8.297184       1.146489       0.103000                    
      -4.817214       9.342857       2.297206       0.103000                    
      -5.999250       7.730903       1.495373      -0.006000                    
      -6.948555       8.220447       1.712422       0.103000                    
      -6.082114       7.174774       0.561696       0.103000                    
      -5.586562       6.597831       2.835752      -0.200000                    
      -4.008566      -9.141855      -2.020352      -0.200000                    
      -2.433968      -8.861901      -1.187780      -0.006000                    
      -2.464193      -7.906220      -0.664592       0.103000                    
      -2.254088      -9.663173      -0.471133       0.103000                    
      -1.306903      -8.841008      -2.222043      -0.006000                    
      -1.276677      -9.796690      -2.745231       0.103000                    
      -1.486783      -8.039738      -2.938690       0.103000                    
       0.267702      -8.561059      -1.389476      -0.200000                    
       4.986429      -7.714976       5.235757      -0.200000                    
       5.928890      -6.238832       4.807239      -0.006000                    
       5.931464      -5.550957       5.652675       0.103000                    
       6.953536      -6.519594       4.563867       0.103000                    
       5.286592      -5.557029       3.597720      -0.006000                    
       5.284026      -6.244910       2.752279       0.103000                    
       4.261948      -5.276267       3.841092       0.103000                    
       6.229059      -4.080887       3.169210      -0.200000                    
       2.849497       0.304176       7.256524      -0.200000                    
       3.849564       1.783716       7.504911      -0.006000                    
       4.259454       1.780192       8.514803       0.103000                    
       4.664831       1.797143       6.781679       0.103000                    
       2.978083       3.026357       7.313236      -0.006000                    
       2.568185       3.029886       6.303349       0.103000                    
       2.162810       3.012934       8.036473       0.103000                    
       3.978140       4.505890       7.561616      -0.200000                    
       2.074496      -8.089838       3.221306      -0.200000                    
       3.251619      -9.026089       2.226958      -0.006000                    
       4.265021      -8.699461       2.459869       0.103000                    
       3.151784     -10.088340       2.449685       0.103000                    
       2.968167      -8.788017       0.742590      -0.006000                    
       1.954764      -9.114641       0.509694       0.103000                    
       3.068006      -7.725757       0.519864       0.103000                    
       4.145289      -9.724265      -0.251744      -0.200000                    
     -11.555190       4.273890       1.460836      -0.200000                    
     -10.397646       2.967170       1.911891      -0.006000                    
     -10.552493       2.688038       2.954025       0.103000                    
     -10.563274       2.098747       1.274451       0.103000                    
      -8.964450       3.469186       1.726563      -0.006000                    
      -8.809592       3.748312       0.684431       0.103000                    
      -8.798809       4.337602       2.364004       0.103000                    
      -7.806903       2.162464       2.177625      -0.200000                    
      -6.481924      -6.348324       0.848941      -0.200000                    
      -7.323694      -7.304162       2.125165      -0.006000                    
      -6.909512      -8.311785       2.157328       0.103000                    
      -7.183033      -6.822195       3.092567       0.103000                    
      -8.817878      -7.377589       1.805072      -0.006000                    
      -9.232067      -6.369962       1.772915       0.103000                    
      -8.958546      -7.859553       0.837677       0.103000                    
      -9.659655      -8.333422       3.081303      -0.200000                    
       1.832660      14.027542       5.385831      -0.200000                    
       1.811635      12.376572       4.661425      -0.006000                    
       2.011609      12.446085       3.592273       0.103000                    
       2.576908      11.761883       5.135204       0.103000                    
       0.438134      11.740195       4.882422      -0.006000                    
       0.238154      11.670685       5.951579       0.103000                    
      -0.327139      12.354883       4.408642       0.103000                    
       0.417097      10.089219       4.158022      -0.200000                    
      -0.016846       6.167780      -6.698903      -0.200000                    
       0.647877       4.888836      -7.782176      -0.006000                    
       1.673096       4.661772      -7.490129       0.103000                    
       0.038395       3.989075      -7.699018       0.103000                    
       0.628439       5.385350      -9.229049      -0.006000                    
      -0.396785       5.612417      -9.521104       0.103000                    
       1.237921       6.285111      -9.312206       0.103000                    
       1.293157       4.106409     -10.312330      -0.200000                    
       7.230463      -7.598629       1.020862      -0.200000                    
       8.310822      -6.228248       0.567323      -0.006000                    
       8.811297      -6.455901      -0.373741       0.103000                    
       7.718421      -5.320444       0.453730       0.103000                    
       9.357439      -6.019690       1.663463      -0.006000                    
       8.856962      -5.792036       2.604527       0.103000                    
       9.949840      -6.927493       1.777057       0.103000                    
      10.437799      -4.649308       1.209926      -0.200000                    
      12.520045       8.371077       1.654805      -0.200000                    
      11.025002       7.853624       0.789925      -0.006000                    
      11.282709       7.524662      -0.216703       0.103000                    
      10.557150       7.032095       1.332265       0.103000                    
      10.050512       9.030036       0.707546      -0.006000                    
       9.792809       9.359008       1.714173       0.103000                    
      10.518375       9.851569       0.165200       0.103000                    
       8.555479       8.512590      -0.157328      -0.200000                    
       0.994896      -4.539575      -7.757146      -0.200000                    
       0.927167      -2.928930      -8.564730      -0.006000                    
       0.667437      -3.059527      -9.615157       0.103000                    
       0.173684      -2.309655      -8.078192       0.103000                    
       2.292680      -2.247414      -8.458544      -0.006000                    
       2.552411      -2.116818      -7.408117       0.103000                    
       3.046174      -2.866683      -8.945077       0.103000                    
       2.224957      -0.636771      -9.266120      -0.200000                    
      -5.919564       5.204307       6.940889      -0.200000                    
      -7.264448       4.344808       6.102176      -0.006000                    
      -8.219443       4.748023       6.438745       0.103000                    
      -7.169880       4.484841       5.025398       0.103000                    
      -7.198080       2.851871       6.429482      -0.006000                    
      -6.243084       2.448655       6.092914       0.103000                    
      -7.292647       2.711836       7.506260       0.103000                    
      -8.542970       1.992375       5.590775      -0.200000                    
      -4.428535      -7.299249       4.009179      -0.200000                    
      -3.972231      -8.719250       5.022223      -0.006000                    
      -2.909415      -8.927150       4.899197       0.103000                    
      -4.181142      -8.500946       6.069416       0.103000                    
      -4.784028      -9.939806       4.584527      -0.006000                    
      -5.846844      -9.731906       4.707553       0.103000                    
      -4.575122     -10.158118       3.537336       0.103000                    
      -4.327724     -11.359807       5.597571      -0.200000                    
       0.589927       8.152852       6.874927      -0.200000                    
       1.761377       7.539572       8.100742      -0.006000                    
       1.274585       6.791737       8.726583       0.103000                    
       2.615369       7.089817       7.594413       0.103000                    
       2.240501       8.700788       8.973886      -0.006000                    
       2.727286       9.448627       8.348051       0.103000                    
       1.386509       9.150541       9.480215       0.103000                    
       3.411945       8.087498      10.199702      -0.200000                    
       1.411375      14.510314       1.781761      -0.200000                    
      -0.302404      14.017476       1.515431      -0.006000                    
      -0.705216      13.591546       2.434268       0.103000                    
      -0.891226      14.889114       1.230088       0.103000                    
      -0.365068      12.972868       0.399520      -0.006000                    
       0.037751      13.398796      -0.519309       0.103000                    
       0.223759      12.101227       0.684870       0.103000                    
      -2.078847      12.480029       0.133190      -0.200000                    
       1.228086      10.400452      -9.130765      -0.200000                    
       2.522670       9.403291      -8.368771      -0.006000                    
       2.347812       8.350334      -8.589364       0.103000                    
       3.492737       9.701727      -8.766066       0.103000                    
       2.505207       9.616161      -6.853970      -0.006000                    
       2.680059      10.669122      -6.633385       0.103000                    
       1.535134       9.317728      -6.456684       0.103000                    
       3.799785       8.619003      -6.091984      -0.200000                    
      -2.522297       6.479423       9.893784      -0.200000                    
      -1.863688       4.808213       9.737931      -0.006000                    
      -1.150195       4.622278      10.540593       0.103000                    
      -2.679542       4.088412       9.802721       0.103000                    
      -1.160642       4.661100       8.387197      -0.006000                    
      -1.874135       4.847036       7.584534       0.103000                    
      -0.344788       5.380902       8.322407       0.103000                    
      -0.502032       2.989890       8.231343      -0.200000                    
      10.417246      -1.207187      -7.407789      -0.200000                    
      10.498868      -0.663971      -5.690479      -0.006000                    
       9.829181      -1.273666      -5.084076       0.103000                    
      11.519651      -0.770377      -5.323616       0.103000                    
      10.075027       0.803121      -5.599047      -0.006000                    
      10.744714       1.412817      -6.205450       0.103000                    
       9.054248       0.909535      -5.965911       0.103000                    
      10.156649       1.346337      -3.881737      -0.200000                    
      -3.516872       5.281253      -7.209075      -0.200000                    
      -4.808221       5.726225      -8.386047      -0.006000                    
      -4.397878       5.719467      -9.395766       0.103000                    
      -5.623885       5.006295      -8.320262       0.103000                    
      -5.335577       7.124716      -8.059833      -0.006000                    
      -5.745925       7.131465      -7.050113       0.103000                    
      -4.519919       7.844637      -8.125618       0.103000                    
      -6.626932       7.569679      -9.236805      -0.200000                    
       7.304866       0.103527      -8.150456      -0.200000                    