%nprocshared=4                                                                       
%mem=8GB                                                                             
#P pop=chelpg cam-b3lyp/gen scf=qc int=ultrafine charge td(nstates=10)               
                                                                                     
pNA CAM-B3LYP def2-TZVPD Single point - solvent def2-SV(P)                           
                                                                                     
0 1                                                                                  
 C       1.389235       0.000000      -0.000000                                 
 C       0.000000       0.000000      -0.000000                                 
 C      -0.711164       1.193419       0.000000                                 
 C      -0.034074       2.386367       0.000141                                 
 C       1.370482       2.412065       0.000933                                 
 C       2.067428       1.192342       0.000144                                 
 H       1.924301      -0.937208       0.000967                                 
 H      -1.790186       1.173300       0.000962                                 
 H      -0.583208       3.318526      -0.000772                                 
 H       3.149318       1.197759      -0.000767                                 
 N      -0.711160      -1.251627       0.001756                                 
 O      -1.932441      -1.229701       0.002542                                 
 O      -0.067142      -2.289538       0.002483                                 
 N       2.040236       3.590780      -0.024683                                 
 H       1.546357       4.451509       0.132529                                 
 H       3.032458       3.607145       0.132525                                 
Cl       8.077844       0.057413      -0.113608                                 
 C       7.451113       1.738068      -0.296789                                 
 H       8.069437       2.422049       0.284427                                 
 H       7.481166       2.024754      -1.347918                                 
 C       6.008250       1.802039       0.207625                                 
 H       5.389935       1.118066      -0.373585                                 
 H       5.978196       1.515353       1.258754                                 
Cl       5.381511       3.482701       0.024446                                 
Cl      -1.470341       9.269584      -2.610787                                 
 C      -1.093257       7.763730      -1.693670                                 
 H      -1.977494       7.441959      -1.143642                                 
 H      -0.792555       6.980196      -2.389070                                 
 C       0.046559       8.037303      -0.710657                                 
 H       0.930796       8.359074      -1.260685                                 
 H      -0.254149       8.820844      -0.015255                                 
Cl       0.423636       6.531456       0.206462                                 
Cl      -2.589569      -3.778337      -3.427672                                 
 C      -1.494408      -2.350755      -3.310912                                 
 H      -1.585902      -1.747496      -4.214045                                 
 H      -1.770128      -1.750975      -2.443614                                 
 C      -0.048652      -2.828026      -3.161420                                 
 H       0.042832      -3.431284      -2.258273                                 
 H       0.227067      -3.427806      -4.028718                                 
Cl       1.046496      -1.400444      -3.044654                                 
Cl      -4.034674       0.816301      -1.711813                                 
 C      -4.681556      -0.709996      -2.420962                                 
 H      -4.132256      -0.949267      -3.331439                                 
 H      -4.566444      -1.521890      -1.702959                                 
 C      -6.164032      -0.529874      -2.752887                                 
 H      -6.713326      -0.290596      -1.842413                                 
 H      -6.279140       0.282012      -3.470903                                 
Cl      -6.810907      -2.056178      -3.462039                                 
Cl      -1.970932       3.707248      -2.674746                                 
 C      -1.631840       2.496568      -3.967079                                 
 H      -2.091590       1.544317      -3.702902                                 
 H      -2.043579       2.849140      -4.912651                                 
 C      -0.119873       2.310650      -4.107611                                 
 H       0.339877       3.262901      -4.371788                                 
 H       0.291866       1.958077      -3.162039                                 
Cl       0.219225       1.099977      -5.399948                                 
                                                                                
       6.416798       8.217047       4.025221      -0.200000                    
       5.541708       6.854496       3.232392      -0.006000                    
       5.983723       6.657821       2.255723       0.103000                    
       5.619787       5.962032       3.853162       0.103000                    
       4.068127       7.227041       3.058938      -0.006000                    
       3.626119       7.423723       4.035604       0.103000                    
       3.990054       8.119512       2.438164       0.103000                    
       3.193039       5.864489       2.266109      -0.200000                    
      -4.826228      -2.213335       3.635093      -0.200000                    
      -4.983852      -0.604567       2.836381      -0.006000                    
      -5.310453       0.134222       3.568152       0.103000                    
      -4.019497      -0.306937       2.424793       0.103000                    
      -6.013434      -0.693964       1.708402      -0.006000                    
      -5.686828      -1.432752       0.976640       0.103000                    
      -6.977795      -0.991587       2.119992       0.103000                    
      -6.171058       0.914804       0.909690      -0.200000                    
      -1.107197       0.326209       3.898350      -0.200000                    
      -1.400480      -1.171009       4.859215      -0.006000                    
      -1.223697      -0.965925       5.914976       0.103000                    
      -2.431286      -1.496442       4.719711       0.103000                    
      -0.450100      -2.273457       4.388353      -0.006000                    
      -0.626876      -2.478548       3.332590       0.103000                    
       0.580710      -1.948024       4.527866       0.103000                    
      -0.743383      -3.770675       5.349218      -0.200000                    
       2.638321       4.481845      -3.292364      -0.200000                    
       3.611519       3.145155      -4.011397      -0.006000                    
       4.163305       2.632645      -3.223497       0.103000                    
       2.947160       2.438547      -4.508686       0.103000                    
       4.596087       3.722194      -5.030233      -0.006000                    
       4.044302       4.234704      -5.818133       0.103000                    
       5.260446       4.428802      -4.532946       0.103000                    
       5.569280       2.385497      -5.749264      -0.200000                    
       5.350305       2.994803       5.571581      -0.200000                    
       5.022345       1.291203       5.080587      -0.006000                    
       5.868497       0.907820       4.510528       0.103000                    
       4.875504       0.678380       5.969878       0.103000                    
       3.761647       1.243589       4.215279      -0.006000                    
       2.915501       1.626980       4.785334       0.103000                    
       3.908493       1.856413       3.325998       0.103000                    
       3.433697      -0.460003       3.724291      -0.200000                    
       2.224451      -5.361141       3.870003      -0.200000                    
       0.817431      -5.640002       2.777570      -0.006000                    
      -0.097868      -5.318397       3.274282       0.103000                    
       0.952022      -5.069697       1.858562       0.103000                    
       0.719018      -7.129539       2.442931      -0.006000                    
       1.634324      -7.451151       1.946217       0.103000                    
       0.584431      -7.699844       3.361948       0.103000                    
      -0.687995      -7.408407       1.350496      -0.200000                    
       3.478685      -7.011955      -0.597978      -0.200000                    
       4.531031      -5.632306      -0.107904      -0.006000                    
       4.845263      -5.764585       0.927344       0.103000                    
       5.409047      -5.597788      -0.752771       0.103000                    
       3.750211      -4.323373      -0.239985      -0.006000                    
       3.435973      -4.191102      -1.275230       0.103000                    
       2.872199      -4.357890       0.404891       0.103000                    
       4.802554      -2.943730       0.250102      -0.200000                    
      -4.474662       5.799273      -2.969737      -0.200000                    
      -5.309605       4.840993      -1.690891      -0.006000                    
      -6.379792       5.044779      -1.724301       0.103000                    
      -5.136343       3.778509      -1.861330       0.103000                    
      -4.758978       5.233212      -0.318552      -0.006000                    
      -3.688798       5.029432      -0.285140       0.103000                    
      -4.932240       6.295695      -0.148113       0.103000                    
      -5.593921       4.274932       0.960294      -0.200000                    
       4.742933      -0.295118      -2.994769      -0.200000                    
       6.099622      -0.712683      -4.106524      -0.006000                    
       5.988781      -0.159627      -5.039133       0.103000                    
       7.047795      -0.449178      -3.638075       0.103000                    
       6.075729      -2.214148      -4.398762      -0.006000                    
       6.186563      -2.767199      -3.466150       0.103000                    
       5.127548      -2.477647      -4.867208       0.103000                    
       7.432412      -2.631707      -5.510515      -0.200000                    
      -2.879852       6.538222       4.410273      -0.200000                    
      -1.312103       6.034827       5.144876      -0.006000                    
      -0.823869       6.901939       5.589486       0.103000                    
      -1.495420       5.286024       5.915329       0.103000                    
      -0.408953       5.441165       4.062174      -0.006000                    
      -0.897187       4.574055       3.617564       0.103000                    
      -0.225642       6.189962       3.291724       0.103000                    
       1.158795       4.937771       4.796777      -0.200000                    
       3.461003       9.717958      -4.092117      -0.200000                    
       4.174188       8.367373      -3.133851      -0.006000                    
       3.449682       7.557181      -3.052442       0.103000                    
       5.072605       8.003017      -3.631920       0.103000                    
       4.535591       8.870052      -1.734889      -0.006000                    
       5.260092       9.680238      -1.816295       0.103000                    
       3.637175       9.234409      -1.236821       0.103000                    
       5.248774       7.519460      -0.776611      -0.200000                    
       8.226402       4.571176      -3.978466      -0.200000                    
       8.021132       5.621964      -2.527778      -0.006000                    
       8.023252       6.668162      -2.833390       0.103000                    
       7.075035       5.387615      -2.040020       0.103000                    
       9.172631       5.374127      -1.551569      -0.006000                    
       9.170511       4.327929      -1.245957       0.103000                    
      10.118729       5.608477      -2.039328       0.103000                    
       8.967361       6.424916      -0.100882      -0.200000                    
      -6.291152      -7.950020       1.609129      -0.200000                    
      -5.818631      -6.889351       0.229785      -0.006000                    
      -4.738274      -6.931870       0.091926       0.103000                    
      -6.314760      -7.231314      -0.678409       0.103000                    
      -6.237826      -5.448515       0.527560      -0.006000                    
      -7.318172      -5.406003       0.665426       0.103000                    
      -5.741693      -5.106552       1.435764       0.103000                    
      -5.765302      -4.387846      -0.851775      -0.200000                    
      -3.454756      -8.743028      -1.854177      -0.200000                    
      -2.292933      -7.569759      -2.578403      -0.006000                    
      -2.427510      -7.545244      -3.659718       0.103000                    
      -2.474678      -6.577005      -2.166834       0.103000                    
      -0.862052      -8.002067      -2.252825      -0.006000                    
      -0.727481      -8.026589      -1.171506       0.103000                    
      -0.680317      -8.994828      -2.664400       0.103000                    
       0.299766      -6.828805      -2.977047      -0.200000                    
      -3.299574      -5.528430       2.934062      -0.200000                    
      -2.836692      -6.804945       4.120282      -0.006000                    
      -2.186109      -7.532856       3.635718       0.103000                    
      -2.310686      -6.348608       4.958734       0.103000                    
      -4.096116      -7.507625       4.630666      -0.006000                    
      -4.746698      -6.779713       5.115231       0.103000                    
      -4.622128      -7.963968       3.792218       0.103000                    
      -3.633234      -8.784141       5.816887      -0.200000                    
       7.649914      -0.509781       3.710161      -0.200000                    
       7.069912      -2.138009       3.196982      -0.006000                    
       6.163856      -2.391294       3.747268       0.103000                    
       6.855300      -2.127399       2.128443       0.103000                    
       8.151317      -3.179948       3.489031      -0.006000                    
       9.057364      -2.926671       2.938740       0.103000                    
       8.365922      -3.190566       4.557574       0.103000                    
       7.571309      -4.808183       2.975856      -0.200000                    
       4.891929      -8.190860      -4.694806      -0.200000                    
       3.563874      -6.981833      -4.535277      -0.006000                    
       2.897088      -7.058736      -5.394020       0.103000                    
       3.003155      -7.176177      -3.621050       0.103000                    
       4.160022      -5.574118      -4.477694      -0.006000                    
       4.826803      -5.497201      -3.618961       0.103000                    
       4.720739      -5.379773      -5.391921       0.103000                    
       2.831959      -4.365084      -4.318162      -0.200000                    
      -2.319542       1.120139      -7.419519      -0.200000                    
      -2.704188      -0.638531      -7.319225      -0.006000                    
      -2.933773      -1.017852      -8.314876       0.103000                    
      -1.846635      -1.175741      -6.914324       0.103000                    
      -3.912822      -0.844792      -6.404328      -0.006000                    
      -3.683241      -0.465472      -5.408687       0.103000                    
      -4.770379      -0.307583      -6.809239       0.103000                    
      -4.297468      -2.603462      -6.304033      -0.200000                    
       0.014945       9.090983       3.158029      -0.200000                    
       0.898038      10.613179       2.765528      -0.006000                    
       1.926132      10.376768       2.491597       0.103000                    
       0.405857      11.114486       1.932222       0.103000                    
       0.895272      11.533846       3.987312      -0.006000                    
      -0.132822      11.770257       4.261242       0.103000                    
       1.387447      11.032532       4.820621       0.103000                    
       1.778360      13.056034       3.594815      -0.200000                    
      11.906659       2.318944       5.390486      -0.200000                    
      10.577578       2.150021       4.183856      -0.006000                    
      11.003193       1.965256       3.197608       0.103000                    
       9.935339       1.315454       4.464822       0.103000                    
       9.753116       3.438222       4.149685      -0.006000                    
       9.327494       3.622993       5.135935       0.103000                    
      10.395353       4.272803       3.868718       0.103000                    
       8.424024       3.269306       2.943048      -0.200000                    
      -0.661293       4.706527      -7.801839      -0.200000                    
       0.879145       5.190923      -6.999725      -0.006000                    
       0.775840       5.084696      -5.919915       0.103000                    
       1.689007       4.552236      -7.352036       0.103000                    
       1.194978       6.648539      -7.340276      -0.006000                    
       1.298276       6.754773      -8.420084       0.103000                    
       0.385126       7.287233      -6.987960       0.103000                    
       2.735416       7.132936      -6.538163      -0.200000                    
      -5.186970       3.006590      -4.937216      -0.200000                    
      -6.288459       3.584880      -6.242252      -0.006000                    
      -5.744418       3.625289      -7.185838       0.103000                    
      -7.130743       2.899698      -6.337291       0.103000                    
      -6.805020       4.981583      -5.891867      -0.006000                    
      -7.349072       4.941165      -4.948287       0.103000                    
      -5.962741       5.666764      -5.796837       0.103000                    
      -7.906506       5.559865      -7.196915      -0.200000                    
      -7.871015       2.384345      -2.003728      -0.200000                    
      -9.483796       2.658539      -1.245665      -0.006000                    
     -10.156405       3.109645      -1.975069       0.103000                    
      -9.895334       1.706049      -0.911993       0.103000                    
      -9.330750       3.595560      -0.046128      -0.006000                    
      -8.658134       3.144461       0.683272       0.103000                    
      -8.919214       4.548048      -0.379809       0.103000                    
     -10.943530       3.869754       0.711935      -0.200000                    
       2.641709       1.593330      -7.903894      -0.200000                    
       3.333100      -0.012554      -8.344363      -0.006000                    
       2.754109      -0.446465      -9.159508       0.103000                    
       4.368860       0.111763      -8.660108       0.103000                    
       3.278706      -0.941552      -7.130127      -0.006000                    
       3.857693      -0.507655      -6.314990       0.103000                    
       2.242940      -1.065877      -6.814379       0.103000                    
       3.970093      -2.547437      -7.570605      -0.200000                    
      -6.570858       0.484381       6.133058      -0.200000                    
      -5.011694       0.882971       6.946141      -0.006000                    
      -4.421752       1.534551       6.301667       0.103000                    
      -5.212936       1.390212       7.889609       0.103000                    
      -4.233547      -0.406073       7.216664      -0.006000                    
      -4.823500      -1.057647       7.861130       0.103000                    
      -4.032309      -0.913315       6.273186       0.103000                    
      -2.674388      -0.007484       8.029737      -0.200000                    
      -3.737930       9.122465       0.743163      -0.200000                    
      -4.802030       9.576218      -0.639849      -0.006000                    
      -4.388539      10.448580      -1.145777       0.103000                    
      -4.861928       8.743796      -1.340874       0.103000                    
      -6.202365       9.905480      -0.119199      -0.006000                    
      -6.615855       9.033125       0.386717       0.103000                    
      -6.142461      10.737909       0.581823       0.103000                    
      -7.266465      10.359233      -1.502211      -0.200000                    
      -2.073595       6.935075      -5.439963      -0.200000                    
      -3.330529       7.054385      -6.727140      -0.006000                    
      -2.848902       7.076992      -7.704634       0.103000                    
      -3.993946       6.191588      -6.668594       0.103000                    
      -4.142640       8.335718      -6.529639      -0.006000                    
      -4.624264       8.313104      -5.552156       0.103000                    
      -3.479228       9.198507      -6.588181       0.103000                    
      -5.399567       8.455021      -7.816820      -0.200000                    
      -0.533319      -3.403824      -8.100468      -0.200000                    
      -0.345558      -5.051198      -7.392058      -0.006000                    
       0.029843      -5.734051      -8.154113       0.103000                    
       0.358378      -5.011487      -6.560893       0.103000                    
      -1.702050      -5.546919      -6.887497      -0.006000                    
      -2.077445      -4.864073      -6.125444       0.103000                    
      -2.405993      -5.586637      -7.718659       0.103000                    
      -1.514288      -7.194307      -6.179085      -0.200000                    
       5.442491      10.445537       1.406928      -0.200000                    
       7.174796      10.814174       1.744847      -0.006000                    
       7.460200      11.728347       1.224473       0.103000                    
       7.315686      10.947233       2.817391       0.103000                    
       8.047221       9.656345       1.256227      -0.006000                    
       7.761808       8.742165       1.776595       0.103000                    
       7.906321       9.523278       0.183678       0.103000                    
       9.779526      10.024982       1.594146      -0.200000                    
      -0.260731       3.543028       9.504265      -0.200000                    
       0.618326       2.001222       9.186406      -0.006000                    
       0.976599       1.586110      10.128341       0.103000                    
      -0.055677       1.290235       8.708745       0.103000                    
       1.808331       2.273468       8.264340      -0.006000                    
       1.450058       2.688580       7.322406       0.103000                    
       2.482331       2.984455       8.741994       0.103000                    
       2.687388       0.731662       7.946481      -0.200000                    
      -9.263354       5.764687       2.840208      -0.200000                    
      -8.286027       4.832800       4.034905      -0.006000                    
      -8.906874       4.060793       4.489319       0.103000                    
      -7.440025       4.367872       3.528896       0.103000                    
      -7.772269       5.778659       5.122001      -0.006000                    
      -7.151439       6.550664       4.667583       0.103000                    
      -8.618283       6.243587       5.628015       0.103000                    
      -6.794948       4.846765       6.316701      -0.200000                    
      -9.079864      -2.334645       6.218199      -0.200000                    
      -9.374163      -3.804492       5.216270      -0.006000                    
      -9.428617      -4.680264       5.862804       0.103000                    
     -10.313537      -3.693317       4.674818       0.103000                    
      -8.228249      -3.978864       4.217848      -0.006000                    
      -8.173795      -3.103092       3.571314       0.103000                    
      -7.288867      -4.090045       4.759298       0.103000                    
      -8.522549      -5.448710       3.215919      -0.200000                    
       0.155532       8.250632      10.911099      -0.200000                    
       1.008345       7.433730       9.548674      -0.006000                    
       2.036367       7.218647       9.839966       0.103000                    
       0.496878       6.502433       9.305773       0.103000                    
       1.007120       8.350081       8.323643      -0.006000                    
      -0.020896       8.565158       8.032347       0.103000                    
       1.518587       9.281378       8.566544       0.103000                    
       1.859940       7.533173       6.961215      -0.200000                    
      10.345682       1.307127      -2.605964      -0.200000                    
      11.264230       1.572444      -4.134641      -0.006000                    
      10.783301       1.027688      -4.946992       0.103000                    
      11.279533       2.636668      -4.369560       0.103000                    
      12.698203       1.068215      -3.961972      -0.006000                    
      13.179134       1.612971      -3.149611       0.103000                    
      12.682895       0.003998      -3.727041       0.103000                    
      13.616746       1.333540      -5.490636      -0.200000                    
      -2.829561      12.746958       3.047021      -0.200000                    
      -4.192201      11.648676       3.480618      -0.006000                    
      -4.817506      12.125547       4.235288       0.103000                    
      -4.788731      11.441223       2.592350       0.103000                    
      -3.633296      10.337564       4.036507      -0.006000                    
      -3.007990       9.860691       3.281838       0.103000                    
      -3.036760      10.545008       4.924773       0.103000                    
      -4.995928       9.239275       4.470102      -0.200000                    
      -2.498285      15.618429      -1.329191      -0.200000                    
      -1.647809      14.296390      -0.446194      -0.006000                    
      -0.575617      14.368823      -0.628060       0.103000                    
      -1.842408      14.388951       0.622215       0.103000                    
      -2.158122      12.941888      -0.941445      -0.006000                    
      -3.230314      12.869455      -0.759580       0.103000                    
      -1.963526      12.849336      -2.009843       0.103000                    
      -1.307642      11.619849      -0.058439      -0.200000                    
      -4.776367      -3.689715       6.823469      -0.200000                    
      -3.794951      -4.669545       7.975718      -0.006000                    
      -4.454962      -5.151949       8.696601       0.103000                    
      -3.239894      -5.429393       7.425733       0.103000                    
      -2.814098      -3.756922       8.714260      -0.006000                    
      -2.154094      -3.274511       7.993381       0.103000                    
      -3.369155      -2.997073       9.264246       0.103000                    
      -1.832682      -4.736752       9.866511      -0.200000                    
       7.408675       7.560886       7.432043      -0.200000                    
       6.017650       6.705223       8.196033      -0.006000                    
       5.899842       7.048291       9.223825       0.103000                    
       5.107594       6.917841       7.635209       0.103000                    
       6.279941       5.198045       8.188984      -0.006000                    
       6.397742       4.854983       7.161194       0.103000                    
       7.189997       4.985427       8.749808       0.103000                    
       4.888913       4.342389       8.952985      -0.200000                    
       0.702428      10.616424      -6.458100      -0.200000                    