%nprocshared=4                                                                       
%mem=8GB                                                                             
#P pop=chelpg cam-b3lyp/gen scf=qc int=ultrafine charge td(nstates=10)               
                                                                                     
pNA CAM-B3LYP def2-TZVPD Single point - solvent def2-SV(P)                           
                                                                                     
0 1                                                                                  
 C       1.389235       0.000000      -0.000000                                 
 C       0.000000       0.000000      -0.000000                                 
 C      -0.711164       1.193419       0.000000                                 
 C      -0.034074       2.386367       0.000141                                 
 C       1.370482       2.412065       0.000933                                 
 C       2.067428       1.192342       0.000144                                 
 H       1.924301      -0.937208       0.000967                                 
 H      -1.790186       1.173300       0.000962                                 
 H      -0.583208       3.318526      -0.000772                                 
 H       3.149318       1.197759      -0.000767                                 
 N      -0.711160      -1.251627       0.001756                                 
 O      -1.932441      -1.229701       0.002542                                 
 O      -0.067142      -2.289538       0.002483                                 
 N       2.040236       3.590780      -0.024683                                 
 H       1.546357       4.451509       0.132529                                 
 H       3.032458       3.607145       0.132525                                 
Cl       4.773925       5.024901       0.720294                                 
 C       6.256383       6.051148       0.714948                                 
 H       5.979494       7.088964       0.530079                                 
 H       6.755131       5.974505       1.681036                                 
 C       7.203813       5.572708      -0.386803                                 
 H       7.480705       4.534883      -0.201938                                 
 H       6.705071       5.649355      -1.352897                                 
Cl       8.686279       6.598951      -0.392159                                 
Cl       7.241904       2.086472       2.389105                                 
 C       5.624317       1.351283       2.082890                                 
 H       5.079938       1.265701       3.023250                                 
 H       5.062818       1.982037       1.393866                                 
 C       5.803778      -0.038810       1.469842                                 
 H       6.348146       0.046780       0.529479                                 
 H       6.365267      -0.669556       2.158864                                 
Cl       4.186178      -0.774005       1.163628                                 
Cl      -0.444029      -6.445533       3.084074                                 
 C       0.083271      -4.855226       3.750218                                 
 H      -0.071107      -4.843739       4.829089                                 
 H       1.140253      -4.702325       3.532564                                 
 C      -0.736545      -3.735549       3.106346                                 
 H      -0.582159      -3.747036       2.027482                                 
 H      -1.793526      -3.888449       3.324000                                 
Cl      -0.209237      -2.145242       3.772496                                 
Cl       3.117829      -1.117981      -2.854603                                 
 C       3.815953      -2.539824      -1.993285                                 
 H       4.774947      -2.800949      -2.440566                                 
 H       3.960530      -2.292812      -0.941598                                 
 C       2.858861      -3.727503      -2.110667                                 
 H       1.899866      -3.466378      -1.663386                                 
 H       2.714283      -3.974514      -3.162354                                 
Cl       3.556988      -5.149337      -1.249338                                 
Cl       1.436147       6.740069       1.439347                                 
 C       2.812502       7.901355       1.528207                                 
 H       3.559285       7.638067       0.779245                                 
 H       2.448811       8.911333       1.339605                                 
 C       3.443370       7.838827       2.920497                                 
 H       2.696593       8.102119       3.669453                                 
 H       3.807067       6.828854       3.109094                                 
Cl       4.819732       9.000117       3.009351                                 
                                                                                
      -2.533688       5.329441       1.024191      -0.200000                    
      -3.968995       5.196720      -0.058949      -0.006000                    
      -4.795311       5.770457       0.360530       0.103000                    
      -3.718034       5.588195      -1.044704       0.103000                    
      -4.379829       3.728353      -0.183455      -0.006000                    
      -3.553518       3.154611      -0.602927       0.103000                    
      -4.630798       3.336877       0.802294       0.103000                    
      -5.815142       3.595627      -1.266589      -0.200000                    
      -3.851971      -4.541471      -3.196337      -0.200000                    
      -3.144659      -4.772029      -1.553944      -0.006000                    
      -3.137563      -5.833557      -1.306870       0.103000                    
      -2.124438      -4.388772      -1.540375       0.103000                    
      -3.986852      -4.015186      -0.525211      -0.006000                    
      -3.993948      -2.953658      -0.772286       0.103000                    
      -5.007076      -4.398435      -0.538777       0.103000                    
      -3.279554      -4.245749       1.117181      -0.200000                    
       5.344310       2.112800      -1.572933      -0.200000                    
       5.624491       2.583732      -3.290635      -0.006000                    
       5.725963       3.666776      -3.358791       0.103000                    
       6.536322       2.109601      -3.653525       0.103000                    
       4.439240       2.128436      -4.144031      -0.006000                    
       4.337768       1.045392      -4.075875       0.103000                    
       3.527406       2.602576      -3.781137       0.103000                    
       4.719418       2.599376      -5.861730      -0.200000                    
      -1.464007      -1.796673      -3.898815      -0.200000                    
      -0.271468      -0.705696      -4.697897      -0.006000                    
       0.695723      -1.204771      -4.756232       0.103000                    
      -0.616808      -0.463460      -5.702909       0.103000                    
      -0.132129       0.581570      -3.883065      -0.006000                    
      -1.099326       1.080640      -3.824724       0.103000                    
       0.213211       0.339335      -2.878053       0.103000                    
       1.060410       1.672547      -4.682148      -0.200000                    
      -3.031886       1.704844       2.776730      -0.200000                    
      -3.022021       0.024614       3.430694      -0.006000                    
      -2.152494      -0.509481       3.047728       0.103000                    
      -2.977566       0.058388       4.519187       0.103000                    
      -4.297232      -0.699595       2.995165      -0.006000                    
      -5.166744      -0.165495       3.378131       0.103000                    
      -4.341678      -0.733369       1.906678       0.103000                    
      -4.287355      -2.379834       3.649132      -0.200000                    
      -6.708399      -1.918984      -2.612498      -0.200000                    
      -5.186333      -1.051478      -3.038789      -0.006000                    
      -4.334139      -1.711423      -2.876853       0.103000                    
      -5.219974      -0.751426      -4.086056       0.103000                    
      -5.043409       0.190683      -2.157308      -0.006000                    
      -5.895604       0.850628      -2.319244       0.103000                    
      -5.009775      -0.109374      -1.110035       0.103000                    
      -3.521343       1.058188      -2.583600      -0.200000                    
       2.070897       5.800611      -5.914735      -0.200000                    
       2.214466       5.606072      -4.127983      -0.006000                    
       1.261262       5.268526      -3.721263       0.103000                    
       2.986574       4.870389      -3.903222       0.103000                    
       2.590652       6.948193      -3.497512      -0.006000                    
       3.543859       7.285730      -3.904236       0.103000                    
       1.818543       7.683875      -3.722273       0.103000                    
       2.734221       6.753654      -1.710759      -0.200000                    
      -1.527105       3.999215      -3.123929      -0.200000                    
      -1.613160       4.943496      -4.657479      -0.006000                    
      -2.519606       5.548718      -4.661407       0.103000                    
      -0.741618       5.593562      -4.733557       0.103000                    
      -1.637221       3.982381      -5.847446      -0.006000                    
      -0.730776       3.377158      -5.843518       0.103000                    
      -2.508769       3.332310      -5.771362       0.103000                    
      -1.723276       4.926661      -7.380996      -0.200000                    
      -0.412629       2.358977       5.559856      -0.200000                    
       1.230635       3.079760       5.383519      -0.006000                    
       1.182735       4.148888       5.589878       0.103000                    
       1.913760       2.603952       6.086979       0.103000                    
       1.733960       2.858582       3.955911      -0.006000                    
       1.781863       1.789467       3.749549       0.103000                    
       1.050848       3.334394       3.252451       0.103000                    
       3.377230       3.579370       3.779568      -0.200000                    
      -0.035203      -6.015389      -0.316360      -0.200000                    
       0.780013      -7.623457      -0.339722      -0.006000                    
       1.850107      -7.486369      -0.494696       0.103000                    
       0.612247      -8.129967       0.610674       0.103000                    
       0.205002      -8.470217      -1.476703      -0.006000                    
      -0.865092      -8.607305      -1.321728       0.103000                    
       0.372769      -7.963707      -2.427097       0.103000                    
       1.020218     -10.078284      -1.500064      -0.200000                    
      -1.277598       7.520507      -2.289844      -0.200000                    
      -1.124865       8.727086      -0.958791      -0.006000                    
      -1.987061       9.393693      -0.971633       0.103000                    
      -1.080536       8.208424      -0.001216       0.103000                    
       0.153562       9.544002      -1.155287      -0.006000                    
       1.015759       8.877396      -1.142446       0.103000                    
       0.109234      10.062665      -2.112863       0.103000                    
       0.306302      10.750586       0.175759      -0.200000                    
       2.151476      -4.310702       6.561868      -0.200000                    
       2.276043      -2.511997       6.557227      -0.006000                    
       1.276627      -2.078414       6.523573       0.103000                    
       2.785867      -2.180535       7.461716       0.103000                    
       3.069432      -2.058954       5.330192      -0.006000                    
       4.068852      -2.492532       5.363839       0.103000                    
       2.559616      -2.390420       4.425693       0.103000                    
       3.194002      -0.260257       5.325547      -0.200000                    
      -6.701275       0.978737       0.930450      -0.200000                    
      -7.359285      -0.695861       0.813188      -0.006000                    
      -7.731304      -0.870452      -0.196268       0.103000                    
      -6.570338      -1.413144       1.039043       0.103000                    
      -8.503650      -0.865336       1.814235      -0.006000                    
      -8.131634      -0.690736       2.823694       0.103000                    
      -9.292593      -0.148039       1.588378       0.103000                    
      -9.161663      -2.539925       1.696977      -0.200000                    
      -3.988376       4.897328       7.144974      -0.200000                    
      -2.592239       4.966935       6.006196      -0.006000                    
      -1.660582       4.918842       6.569813       0.103000                    
      -2.643565       4.124826       5.316151       0.103000                    
      -2.642968       6.276290       5.216681      -0.006000                    
      -3.574616       6.324379       4.653053       0.103000                    
      -2.591638       7.118391       5.906723       0.103000                    
      -1.246828       6.345889       4.077899      -0.200000                    
       3.555262      -9.253569       2.338571      -0.200000                    
       3.490446      -7.602965       3.061157      -0.006000                    
       2.476790      -7.395673       3.403942       0.103000                    
       4.177938      -7.548283       3.905122       0.103000                    
       3.893477      -6.569105       2.008014      -0.006000                    
       4.907143      -6.776384       1.665233       0.103000                    
       3.205993      -6.623787       1.164055       0.103000                    
       3.828664      -4.918489       2.730597      -0.200000                    
      -1.631255      -6.166336      -6.408839      -0.200000                    
      -0.380936      -5.138664      -5.614202      -0.006000                    
      -0.868571      -4.392873      -4.986544       0.103000                    
       0.266601      -5.763851      -4.999589       0.103000                    
       0.456233      -4.435316      -6.684118      -0.006000                    
       0.943868      -5.181108      -7.311776       0.103000                    
      -0.191305      -3.810129      -7.298730       0.103000                    
       1.706551      -3.407644      -5.889480      -0.200000                    
       7.117565      -3.074293      -0.763771      -0.200000                    
       8.139355      -1.987921      -1.777080      -0.006000                    
       7.508262      -1.243297      -2.262051       0.103000                    
       8.873705      -1.486966      -1.146440       0.103000                    
       8.862020      -2.814764      -2.842180      -0.006000                    
       9.493112      -3.559388      -2.357210       0.103000                    
       8.127674      -3.315714      -3.472828       0.103000                    
       9.883813      -1.728401      -3.855494      -0.200000                    
      -5.724574       4.441205       3.185558      -0.200000                    
      -6.788467       4.016182       4.577786      -0.006000                    
      -6.303749       4.309964       5.508741       0.103000                    
      -7.739388       4.540108       4.481914       0.103000                    
      -7.037199       2.506737       4.587265      -0.006000                    
      -7.521926       2.212959       3.656320       0.103000                    
      -6.086282       1.982820       4.683141       0.103000                    
      -8.101098       2.081709       5.979499      -0.200000                    
       6.352562       6.786546       7.057298      -0.200000                    
       4.824493       6.907325       6.107963      -0.006000                    
       4.762843       7.890574       5.641783       0.103000                    
       4.814126       6.137763       5.336193       0.103000                    
       3.627892       6.709718       7.040440      -0.006000                    
       3.689549       5.726473       7.506614       0.103000                    
       3.638261       7.479280       7.812210       0.103000                    
       2.099825       6.830497       6.091106      -0.200000                    
      -3.636327      -8.925768       3.098871      -0.200000                    
      -4.315555      -7.393254       2.434887      -0.006000                    
      -3.611995      -6.578912       2.607463       0.103000                    
      -4.486634      -7.505179       1.364306       0.103000                    
      -5.640262      -7.078321       3.132239      -0.006000                    
      -6.343808      -7.892658       2.959663       0.103000                    
      -5.469177      -6.966392       4.202814       0.103000                    
      -6.319477      -5.545802       2.468255      -0.200000                    
       5.420674       9.234452      -0.668337      -0.200000                    
       5.342820      10.983770      -1.098178      -0.006000                    
       5.226571      11.576303      -0.190783       0.103000                    
       6.261859      11.274405      -1.606922       0.103000                    
       4.149179      11.228960      -2.023086      -0.006000                    
       4.265431      10.636434      -2.930472       0.103000                    
       3.230147      10.938324      -1.514336       0.103000                    
       4.071328      12.978286      -2.452916      -0.200000                    
       8.943283       1.383781      -2.113641      -0.200000                    
      10.261981       1.891906      -0.993955      -0.006000                    
      10.003940       2.847869      -0.538401       0.103000                    
      10.387363       1.140016      -0.214944       0.103000                    
      11.568206       2.036856      -1.777005      -0.006000                    
      11.826256       1.080885      -2.232555       0.103000                    
      11.442828       2.788751      -2.556022       0.103000                    
      12.886914       2.544973      -0.657314      -0.200000                    
      10.167954       7.871292      -5.806468      -0.200000                    
       8.942365       6.891942      -4.917794      -0.006000                    
       8.934684       5.875431      -5.310971       0.103000                    
       9.194003       6.869765      -3.857552       0.103000                    
       7.558945       7.519072      -5.099995      -0.006000                    
       7.566629       8.535597      -4.706821       0.103000                    
       7.307304       7.541257      -6.160234       0.103000                    
       6.333361       6.539732      -4.211311      -0.200000                    
       7.802971       3.582028       6.536676      -0.200000                    
       6.107889       2.970153       6.593172      -0.006000                    
       5.473128       3.599727       5.969746       0.103000                    
       6.078805       1.945282       6.223398       0.103000                    
       5.600725       3.005750       8.036034      -0.006000                    
       6.235486       2.376176       8.659458       0.103000                    
       5.629802       4.030620       8.405800       0.103000                    
       3.905640       2.393884       8.092533      -0.200000                    
      -8.017296       9.071486       3.793274      -0.200000                    
      -6.756743       8.209538       2.834620      -0.006000                    
      -6.496992       7.275306       3.332319       0.103000                    
      -7.141320       7.995560       1.837507       0.103000                    
      -5.510884       9.090201       2.721917      -0.006000                    
      -5.770635      10.024434       2.224219       0.103000                    
      -5.126308       9.304180       3.719030       0.103000                    
      -4.250332       8.228254       1.763262      -0.200000                    
      -5.602838       7.106094      -4.581492      -0.200000                    
      -4.897607       8.364841      -3.500181      -0.006000                    
      -5.699994       8.954402      -3.056911       0.103000                    
      -4.320766       7.883924      -2.710289       0.103000                    
      -3.981889       9.281214      -4.313867      -0.006000                    
      -3.179502       8.691653      -4.757136       0.103000                    
      -4.558730       9.762131      -5.103759       0.103000                    
      -3.276653      10.539967      -3.232562      -0.200000                    
       4.717387      -0.780766      -9.350012      -0.200000                    
       5.243378      -1.769169      -7.936733      -0.006000                    
       4.481987      -2.515938      -7.711775       0.103000                    
       6.183578      -2.267949      -8.171647       0.103000                    
       5.438943      -0.859266      -6.722580      -0.006000                    
       6.200338      -0.112506      -6.947540       0.103000                    
       4.498743      -0.360486      -6.487666       0.103000                    
       5.964938      -1.847677      -5.309305      -0.200000                    
      11.324148      -3.883265       2.904105      -0.200000                    
       9.696208      -3.902366       2.129263      -0.006000                    
       9.289330      -2.891372       2.113152       0.103000                    
       9.783558      -4.275409       1.108900       0.103000                    
       8.762460      -4.814606       2.926953      -0.006000                    
       9.169338      -5.825600       2.943062       0.103000                    
       8.675109      -4.441562       3.947315       0.103000                    
       7.134522      -4.833715       2.152106      -0.200000                    
       1.151953      10.462404       3.991918      -0.200000                    
      -0.447184      11.050389       4.581759      -0.006000                    
      -0.571607      10.776078       5.629251       0.103000                    
      -0.495341      12.134668       4.481677       0.103000                    
      -1.562826      10.412169       3.752073      -0.006000                    
      -1.438412      10.686484       2.704591       0.103000                    
      -1.514674       9.327885       3.852161       0.103000                    
      -3.161971      11.000158       4.341924      -0.200000                    
      -3.564102       0.346803      -6.673236      -0.200000                    
      -3.416592      -0.588946      -8.207326      -0.006000                    
      -4.396242      -0.672887      -8.677628       0.103000                    
      -2.732151      -0.075158      -8.882210       0.103000                    
      -2.876706      -1.987329      -7.901772      -0.006000                    
      -1.897059      -1.903379      -7.431467       0.103000                    
      -3.561150      -2.501108      -7.226884       0.103000                    
      -2.729200      -2.923070      -9.435859      -0.200000                    
      11.844225       6.745553       2.437722      -0.200000                    
      10.321027       7.676231       2.691983      -0.006000                    
      10.522069       8.534508       3.333000       0.103000                    
       9.941200       8.021608       1.730513       0.103000                    
       9.278617       6.776139       3.357938      -0.006000                    
       9.077581       5.917867       2.716915       0.103000                    
       9.658448       6.430767       4.319401       0.103000                    
       7.755424       7.706822       3.612193      -0.200000                    
      -9.530564      -4.139997      -2.225403      -0.200000                    
      -8.488418      -5.524649      -1.727762      -0.006000                    
      -7.710377      -5.169651      -1.052053       0.103000                    
      -9.096588      -6.273465      -1.220501       0.103000                    
      -7.842010      -6.147385      -2.966584      -0.006000                    
      -8.620060      -6.502379      -3.642283       0.103000                    
      -7.233851      -5.398560      -3.473847       0.103000                    
      -6.799881      -7.532032      -2.468939      -0.200000                    
      -7.757844       0.987521      -4.697400      -0.200000                    
      -8.266844       2.549231      -5.440954      -0.006000                    
      -8.854388       2.350749      -6.337227       0.103000                    
      -8.869719       3.111860      -4.728218       0.103000                    
      -7.027176       3.364083      -5.814619      -0.006000                    
      -6.439634       3.562570      -4.918360       0.103000                    
      -6.424302       2.801455      -6.527355       0.103000                    
      -7.536175       4.925794      -6.558174      -0.200000                    
      -9.714192       3.274117      -2.212662      -0.200000                    
      -9.334698       4.080372      -0.645248      -0.006000                    
      -8.262081       4.262802      -0.580547       0.103000                    
      -9.868979       5.028477      -0.585357       0.103000                    
      -9.768462       3.177288       0.510877      -0.006000                    
     -10.841079       2.994859       0.446176       0.103000                    
      -9.234182       2.229184       0.450986       0.103000                    
      -9.388968       3.983543       2.078291      -0.200000                    
      11.696131       1.463145       2.727824      -0.200000                    
      11.299953       0.135521       3.881681      -0.006000                    
      11.919875      -0.733742       3.662490       0.103000                    
      11.491117       0.470664       4.901053       0.103000                    
       9.824379      -0.241764       3.737761      -0.006000                    
       9.204453       0.627508       3.956955       0.103000                    
       9.633211      -0.576897       2.718392       0.103000                    
       9.428198      -1.569379       4.891622      -0.200000                    
      -6.078371     -12.374558      -0.274276      -0.200000                    
      -4.924636     -11.205764      -1.018294      -0.006000                    
      -3.941166     -11.668255      -1.100817       0.103000                    
      -5.279326     -10.926243      -2.010271       0.103000                    
      -4.827922      -9.956191      -0.141078      -0.006000                    
      -5.811392      -9.493700      -0.058555       0.103000                    
      -4.473227     -10.235724       0.850909       0.103000                    
      -3.674185      -8.787405      -0.885100      -0.200000                    
       1.674854      10.269477      -5.185945      -0.200000                    
      -0.011845       9.839167      -5.655810      -0.006000                    
      -0.010318       8.884953      -6.182534       0.103000                    
      -0.629428       9.759690      -4.761278       0.103000                    
      -0.579009      10.925572      -6.571500      -0.006000                    
      -0.580534      11.879777      -6.044778       0.103000                    
       0.038574      11.005048      -7.466031       0.103000                    
      -2.265706      10.495254      -7.041368      -0.200000                    
       9.315683      -0.668295      -7.338310      -0.200000                    
       8.821081       0.841234      -6.485307      -0.006000                    
       8.211443       1.451975      -7.151104       0.103000                    
       8.243834       0.584476      -5.597154       0.103000                    
      10.067930       1.625969      -6.073219      -0.006000                    
      10.677575       1.015227      -5.407415       0.103000                    
      10.645182       1.882713      -6.961363       0.103000                    
       9.573322       3.135493      -5.220209      -0.200000                    
       0.379135       0.154060       8.690275      -0.200000                    