%nprocshared=4                                                                       
%mem=8GB                                                                             
#P pop=chelpg cam-b3lyp/gen scf=qc int=ultrafine charge td(nstates=10)               
                                                                                     
pNA CAM-B3LYP def2-TZVPD Single point - solvent def2-SV(P)                           
                                                                                     
0 1                                                                                  
 C       1.389235       0.000000      -0.000000                                 
 C       0.000000       0.000000      -0.000000                                 
 C      -0.711164       1.193419       0.000000                                 
 C      -0.034074       2.386367       0.000141                                 
 C       1.370482       2.412065       0.000933                                 
 C       2.067428       1.192342       0.000144                                 
 H       1.924301      -0.937208       0.000967                                 
 H      -1.790186       1.173300       0.000962                                 
 H      -0.583208       3.318526      -0.000772                                 
 H       3.149318       1.197759      -0.000767                                 
 N      -0.711160      -1.251627       0.001756                                 
 O      -1.932441      -1.229701       0.002542                                 
 O      -0.067142      -2.289538       0.002483                                 
 N       2.040236       3.590780      -0.024683                                 
 H       1.546357       4.451509       0.132529                                 
 H       3.032458       3.607145       0.132525                                 
Cl       5.210735       4.701159       0.477499                                 
 C       5.118819       4.854206      -1.316673                                 
 H       4.287509       4.256590      -1.690445                                 
 H       4.964814       5.899300      -1.585005                                 
 C       6.424642       4.355737      -1.938550                                 
 H       7.255945       4.953358      -1.564784                                 
 H       6.578647       3.310642      -1.670217                                 
Cl       6.332727       4.508793      -3.732731                                 
Cl       3.666195      -5.860735       0.943149                                 
 C       2.575941      -5.248456       2.242138                                 
 H       1.740976      -5.937135       2.370620                                 
 H       3.131288      -5.172000       3.176847                                 
 C       2.042782      -3.868626       1.852060                                 
 H       2.877754      -3.179936       1.723581                                 
 H       1.487443      -3.945071       0.917354                                 
Cl       0.952535      -3.256335       3.151052                                 
Cl      -0.686887       5.877853      -0.163570                                 
 C      -2.029721       6.897569       0.475083                                 
 H      -2.244197       6.612880       1.505096                                 
 H      -1.737096       7.946930       0.441328                                 
 C      -3.279892       6.689523      -0.381753                                 
 H      -3.065416       6.974205      -1.411774                                 
 H      -3.572517       5.640162      -0.347998                                 
Cl      -4.622725       7.709232       0.256894                                 
Cl      -2.965985      -4.798520      -0.740921                                 
 C      -1.234026      -5.235740      -0.495907                                 
 H      -0.609993      -4.632557      -1.155240                                 
 H      -0.954866      -5.048244       0.540848                                 
 C      -1.031685      -6.717555      -0.817925                                 
 H      -1.655705      -7.320732      -0.158583                                 
 H      -1.310844      -6.905052      -1.854681                                 
Cl       0.700288      -7.154770      -0.572902                                 
Cl      -0.361798      -0.094773      -3.857096                                 
 C      -0.797660      -1.820818      -3.571301                                 
 H      -0.274357      -2.186491      -2.687922                                 
 H      -1.873410      -1.903368      -3.416768                                 
 C      -0.391916      -2.657138      -4.786343                                 
 H      -0.915225      -2.291460      -5.669729                                 
 H       0.683834      -2.574587      -4.940876                                 
Cl      -0.827779      -4.383183      -4.500547                                 
                                                                                
       2.099328      -0.026089      -5.991302      -0.200000                    
       3.468281       0.539537      -4.963279      -0.006000                    
       4.151802      -0.289363      -4.779780       0.103000                    
       3.999366       1.342337      -5.474534       0.103000                    
       2.924963       1.056507      -3.629929      -0.006000                    
       2.241442       1.885408      -3.813428       0.103000                    
       2.393878       0.253708      -3.118674       0.103000                    
       4.293916       1.622133      -2.601905      -0.200000                    
       4.433892       4.462218       4.990357      -0.200000                    
       3.124650       5.182787       3.981576      -0.006000                    
       2.830140       6.144683       4.401065       0.103000                    
       3.486919       5.325686       2.963617       0.103000                    
       1.917590       4.243037       3.965472      -0.006000                    
       2.212092       3.281136       3.545985       0.103000                    
       1.555313       4.100133       4.983433       0.103000                    
       0.608340       4.963602       2.956694      -0.200000                    
       8.509607       0.133061       2.554184      -0.200000                    
       6.797287       0.422127       3.039260      -0.006000                    
       6.224300      -0.496744       2.915615       0.103000                    
       6.762818       0.734421       4.082925       0.103000                    
       6.196265       1.519587       2.159057      -0.006000                    
       6.769243       2.438446       2.282699       0.103000                    
       6.230733       1.207293       1.115391       0.103000                    
       4.483945       1.808644       2.644126      -0.200000                    
      -3.315141      -3.750967       3.508004      -0.200000                    
      -4.371847      -3.101286       2.199521      -0.006000                    
      -4.487517      -2.024961       2.326360       0.103000                    
      -3.917897      -3.306402       1.230088       0.103000                    
      -5.744344      -3.773122       2.271689      -0.006000                    
      -5.628673      -4.849447       2.144849       0.103000                    
      -6.198293      -3.568007       3.241122       0.103000                    
      -6.801049      -3.123442       0.963206      -0.200000                    
       7.234766      -4.709222      -2.401662      -0.200000                    
       6.701125      -3.195339      -1.580561      -0.006000                    
       7.504678      -2.823932      -0.944723       0.103000                    
       6.453185      -2.443434      -2.329632       0.103000                    
       5.467553      -3.487356      -0.724192      -0.006000                    
       4.663990      -3.858761      -1.360020       0.103000                    
       5.715492      -4.239254       0.024886       0.103000                    
       4.933916      -1.973472       0.096922      -0.200000                    
       2.607635       7.465754      -0.093285      -0.200000                    
       1.538049       8.718232      -0.826894      -0.006000                    
       0.582674       8.268022      -1.096213       0.103000                    
       1.372064       9.520739      -0.108330       0.103000                    
       2.204627       9.287066      -2.080862      -0.006000                    
       3.160001       9.737277      -1.811543       0.103000                    
       2.370611       8.484560      -2.799427       0.103000                    
       1.135050      10.539549      -2.814475      -0.200000                    
      -8.459526       1.103000       1.403295      -0.200000                    
      -6.693479       1.380711       1.169087      -0.006000                    
      -6.294006       1.923317       2.025782       0.103000                    
      -6.183799       0.421767       1.076265       0.103000                    
      -6.470563       2.201282      -0.102649      -0.006000                    
      -6.870044       1.658672      -0.959340       0.103000                    
      -6.980246       3.160217      -0.009817       0.103000                    
      -4.704525       2.478996      -0.336847      -0.200000                    
       0.223411       0.560211       3.463155      -0.200000                    
      -1.328449      -0.180856       4.004898      -0.006000                    
      -2.133634       0.546736       3.903747       0.103000                    
      -1.548239      -1.054068       3.390830       0.103000                    
      -1.206760      -0.605664       5.469515      -0.006000                    
      -0.401566      -1.333252       5.570661       0.103000                    
      -0.986955       0.267539       6.083579       0.103000                    
      -2.758605      -1.346732       6.011260      -0.200000                    
      -4.237854       2.748677       3.407855      -0.200000                    
      -2.795459       3.770673       3.762602      -0.006000                    
      -2.016333       3.156031       4.213315       0.103000                    
      -2.423124       4.208117       2.836361       0.103000                    
      -3.187687       4.887449       4.731801      -0.006000                    
      -3.966821       5.502087       4.281093       0.103000                    
      -3.560021       4.449998       5.658036       0.103000                    
      -1.745300       5.909441       5.086552      -0.200000                    
      -0.800198       5.293669      -6.157336      -0.200000                    
       0.469924       4.851705      -4.956349      -0.006000                    
       0.042546       4.191953      -4.201361       0.103000                    
       1.288378       4.341326      -5.463883       0.103000                    
       0.999274       6.119791      -4.283959      -0.006000                    
       1.426651       6.779541      -5.038947       0.103000                    
       0.180825       6.630164      -3.776418       0.103000                    
       2.269388       5.677823      -3.082968      -0.200000                    
      -3.197854       3.828111      -2.991861      -0.200000                    
      -3.293671       2.184402      -3.726678      -0.006000                    
      -2.395093       1.620965      -3.475620       0.103000                    
      -4.169379       1.663585      -3.339566       0.103000                    
      -3.407200       2.311317      -5.247003      -0.006000                    
      -4.305779       2.874755      -5.498062       0.103000                    
      -2.531492       2.832127      -5.634123       0.103000                    
      -3.503018       0.667609      -5.981821      -0.200000                    
      -5.126141      -2.014282      -3.004995      -0.200000                    
      -6.323417      -0.863984      -2.301999      -0.006000                    
      -6.319704      -0.954054      -1.215793       0.103000                    
      -6.057219       0.154841      -2.583235       0.103000                    
      -7.719267      -1.191525      -2.835514      -0.006000                    
      -7.722981      -1.101455      -3.921720       0.103000                    
      -7.985461      -2.210348      -2.554264       0.103000                    
      -8.916535      -0.041223      -2.132522      -0.200000                    
       1.295949       1.381805       6.953222      -0.200000                    
       2.331278      -0.066980       6.670309      -0.006000                    
       2.706931      -0.437265       7.624103       0.103000                    
       1.742723      -0.845193       6.184555       0.103000                    
       3.509495       0.315667       5.772714      -0.006000                    
       3.133842       0.685951       4.818920       0.103000                    
       4.098054       1.093882       6.258481       0.103000                    
       4.544823      -1.133110       5.489808      -0.200000                    
       4.877767      -9.291738      -2.844330      -0.200000                    
       4.338511      -7.612417      -2.470226      -0.006000                    
       4.014975      -7.557474      -1.430890       0.103000                    
       5.165467      -6.920763      -2.630634       0.103000                    
       3.173476      -7.234796      -3.387033      -0.006000                    
       3.496998      -7.289738      -4.426373       0.103000                    
       2.346514      -7.926445      -3.226633       0.103000                    
       2.634212      -5.555488      -3.012933      -0.200000                    
       0.781331      11.512326       5.750639      -0.200000                    
       2.047662      10.731132       4.732298      -0.006000                    
       2.456274      11.462808       4.035397       0.103000                    
       2.845465      10.352474       5.371123       0.103000                    
       1.428710       9.571909       3.949035      -0.006000                    
       1.020092       8.840238       4.645929       0.103000                    
       0.630908       9.950559       3.310204       0.103000                    
       2.695027       8.790714       2.930691      -0.200000                    
      -1.176477      -6.676746       2.876215      -0.200000                    
      -2.316828      -8.071619       2.945493      -0.006000                    
      -2.001832      -8.834450       2.233599       0.103000                    
      -2.317377      -8.491152       3.951436       0.103000                    
      -3.726905      -7.595546       2.591329      -0.006000                    
      -4.041888      -6.832716       3.303226       0.103000                    
      -3.726349      -7.176009       1.585383       0.103000                    
      -4.867243      -8.990420       2.660610      -0.200000                    
       7.224324       8.412847      -2.767319      -0.200000                    
       7.094156       9.625493      -1.439348      -0.006000                    
       8.034378       9.664845      -0.889482       0.103000                    
       6.879228      10.606606      -1.862671       0.103000                    
       5.964938       9.222120      -0.489341      -0.006000                    
       5.024709       9.182773      -1.039214       0.103000                    
       6.179851       8.241007      -0.066021       0.103000                    
       5.834769      10.434766       0.838630      -0.200000                    
      12.967181       1.392410      -0.531807      -0.200000                    
      11.387650       0.717048      -1.079470      -0.006000                    
      11.365952       0.680326      -2.168557       0.103000                    
      11.264096      -0.289182      -0.679229       0.103000                    
      10.250269       1.608321      -0.577084      -0.006000                    
      10.271965       1.645043       0.512004       0.103000                    
      10.373820       2.614551      -0.977324       0.103000                    
       8.670742       0.932947      -1.124746      -0.200000                    
       8.361321       7.261772       3.980630      -0.200000                    
       6.607407       7.487732       4.332178      -0.006000                    
       6.222744       8.319988       3.742851       0.103000                    
       6.064803       6.578297       4.074400       0.103000                    
       6.420203       7.788050       5.820513      -0.006000                    
       6.804867       6.955793       6.409840       0.103000                    
       6.962801       8.697498       6.078291       0.103000                    
       4.666281       8.014006       6.172065      -0.200000                    
      10.555835       2.555742       3.785241      -0.200000                    
      10.578303       3.888758       2.571359      -0.006000                    
      11.063884       4.764402       3.001910       0.103000                    
      11.127990       3.566137       1.687222       0.103000                    
       9.143370       4.244063       2.177533      -0.006000                    
       8.657804       3.368412       1.746979       0.103000                    
       8.593698       4.566677       3.061667       0.103000                    
       9.165853       5.577071       0.963647      -0.200000                    
       9.601924      -4.352366       5.918091      -0.200000                    
       8.244379      -4.683759       4.778686      -0.006000                    
       8.602436      -5.304101       3.957181       0.103000                    
       7.445735      -5.204876       5.306468       0.103000                    
       7.710308      -3.361984       4.223617      -0.006000                    
       7.352252      -2.741650       5.045115       0.103000                    
       8.508953      -2.840868       3.695835       0.103000                    
       6.352763      -3.693378       3.084213      -0.200000                    
      -5.817870      -4.101504      -5.530077      -0.200000                    
      -4.484397      -3.210730      -6.354257      -0.006000                    
      -4.899625      -2.377015      -6.920353       0.103000                    
      -3.785309      -2.831738      -5.608897       0.103000                    
      -3.750704      -4.157480      -7.305933      -0.006000                    
      -3.335485      -4.991200      -6.739833       0.103000                    
      -4.449801      -4.536476      -8.051290       0.103000                    
      -2.417230      -3.266713      -8.130119      -0.200000                    
      -4.207956      -8.096343      -1.696951      -0.200000                    
      -3.444806      -7.824985      -3.307795      -0.006000                    
      -2.974564      -6.841928      -3.326362       0.103000                    
      -2.691328      -8.591872      -3.486961       0.103000                    
      -4.515421      -7.898219      -4.398110      -0.006000                    
      -4.985663      -8.881283      -4.379549       0.103000                    
      -5.268903      -7.131333      -4.218956       0.103000                    
      -3.752271      -7.626862      -6.008954      -0.200000                    
       2.616610      -3.386067       8.396045      -0.200000                    
       3.910852      -4.357445       7.600872      -0.006000                    
       4.786942      -3.730279       7.436257       0.103000                    
       4.180185      -5.197495       8.241007       0.103000                    
       3.401248      -4.883381       6.257718      -0.006000                    
       2.525152      -5.510541       6.422326       0.103000                    
       3.131915      -4.043330       5.617583       0.103000                    
       4.695485      -5.854753       5.462538      -0.200000                    
       5.443572      -5.829535      -8.950341      -0.200000                    
       5.187970      -4.324948      -7.990229      -0.006000                    
       6.090483      -3.714764      -8.023410       0.103000                    
       4.353654      -3.763153      -8.409989       0.103000                    
       4.875169      -4.693244      -6.538737      -0.006000                    
       3.972662      -5.303433      -6.505550       0.103000                    
       5.709491      -5.255044      -6.118970       0.103000                    
       4.619559      -3.188660      -5.578621      -0.200000                    
      -7.684188      -7.192900       0.807317      -0.200000                    
      -7.916208      -6.986085      -0.968717      -0.006000                    
      -6.984140      -7.213140      -1.486022       0.103000                    
      -8.697957      -7.662297      -1.314442       0.103000                    
      -8.324380      -5.541767      -1.264873      -0.006000                    
      -9.256448      -5.314713      -0.747568       0.103000                    
      -7.542629      -4.865563      -0.919156       0.103000                    
      -8.556407      -5.334957      -3.040904      -0.200000                    
      -4.962899       6.032749      -5.188448      -0.200000                    
      -6.305651       6.208597      -3.998071      -0.006000                    
      -7.262053       6.115402      -4.512446       0.103000                    
      -6.223418       5.430200      -3.239612       0.103000                    
      -6.218279       7.582052      -3.330025      -0.006000                    
      -5.261882       7.675251      -2.815656       0.103000                    
      -6.300521       8.360445      -4.088482       0.103000                    
      -7.561039       7.757903      -2.139638      -0.200000                    
      -1.038006      10.992229      -0.001870      -0.200000                    
      -2.616814      11.859200       0.079965      -0.006000                    
      -3.378339      11.190690       0.481402       0.103000                    
      -2.519977      12.730536       0.727555       0.103000                    
      -3.024054      12.310616      -1.323877      -0.006000                    
      -2.262528      12.979125      -1.725315       0.103000                    
      -3.120882      11.439283      -1.971469       0.103000                    
      -4.602856      13.177582      -1.242035      -0.200000                    
       8.599013      -0.519060       7.432332      -0.200000                    
       8.647723       1.139667       6.727262      -0.006000                    
       9.370727       1.745663       7.273134       0.103000                    
       8.940487       1.080704       5.679053       0.103000                    
       7.262473       1.779996       6.834034      -0.006000                    
       6.539480       1.173997       6.288152       0.103000                    
       6.969718       1.838963       7.882238       0.103000                    
       7.311189       3.438718       6.128970      -0.200000                    
      -7.312767       4.688795       2.864192      -0.200000                    
      -8.664003       5.449251       1.943973      -0.006000                    
      -8.266088       5.951228       1.062130       0.103000                    
      -9.372212       4.680156       1.635940       0.103000                    
      -9.375702       6.470214       2.833591      -0.006000                    
      -9.773623       5.968242       3.715428       0.103000                    
      -8.667490       7.239317       3.141614       0.103000                    
     -10.726931       7.230674       1.913368      -0.200000                    
      -2.307793       9.354037      -3.452134      -0.200000                    
      -2.464395       8.763737      -5.148541      -0.006000                    
      -1.733288       7.975618      -5.328230       0.103000                    
      -3.468763       8.370590      -5.305440       0.103000                    
      -2.213622       9.921552      -6.116528      -0.006000                    
      -2.944720      10.709667      -5.936849       0.103000                    
      -1.209246      10.314702      -5.959632       0.103000                    
      -2.370223       9.331244      -7.812941      -0.200000                    
      -1.298725       3.739635       9.234386      -0.200000                    
      -0.303646       4.722353       8.096371      -0.006000                    
      -0.379030       4.303688       7.092887       0.103000                    
      -0.667102       5.749881       8.089865       0.103000                    
       1.157697       4.701757       8.548476      -0.006000                    
       1.233081       5.120424       9.551960       0.103000                    
       1.521162       3.674235       8.554978       0.103000                    
       2.152785       5.684480       7.410456      -0.200000                    
       8.862967      -0.928524      -3.947479      -0.200000                    
       9.568071      -2.434572      -4.644305      -0.006000                    
      10.523438      -2.204433      -5.115746       0.103000                    
       9.721126      -3.165507      -3.850410       0.103000                    
       8.610090      -3.010226      -5.688947      -0.006000                    
       7.654724      -3.240364      -5.217505       0.103000                    
       8.457045      -2.279287      -6.482844       0.103000                    
       9.315195      -4.516274      -6.385773      -0.200000                    
     -12.179101       4.189720      -0.883871      -0.200000                    
     -10.592264       3.368512      -1.125564      -0.006000                    
      -9.920820       3.626718      -0.306792       0.103000                    
     -10.741085       2.288992      -1.147053       0.103000                    
      -9.978671       3.824590      -2.450680      -0.006000                    
     -10.650121       3.566389      -3.269458       0.103000                    
      -9.829864       4.904111      -2.429193       0.103000                    
      -8.391849       3.003383      -2.692374      -0.200000                    
       2.608320      -8.672830       4.296304      -0.200000                    
       3.839670      -9.647698       3.410697      -0.006000                    
       4.831018      -9.232565       3.591880       0.103000                    
       3.807764     -10.679132       3.761513       0.103000                    
       3.537863      -9.610007       1.911410      -0.006000                    
       2.546520     -10.025146       1.730234       0.103000                    
       3.569769      -8.578574       1.560595       0.103000                    
       4.769213     -10.584876       1.025803      -0.200000                    
      -5.138785      11.039735       6.566781      -0.200000                    
      -4.634243      10.825830       4.849071      -0.006000                    
      -5.434931      10.338481       4.292944       0.103000                    
      -4.425613      11.800155       4.407391       0.103000                    
      -3.374170       9.960205       4.791755      -0.006000                    
      -2.573472      10.447557       5.347878       0.103000                    
      -3.582804       8.985885       5.233428       0.103000                    
      -2.869618       9.746305       3.074041      -0.200000                    
     -10.104900       0.267955       5.523045      -0.200000                    
      -8.955054       1.557521       6.038573      -0.006000                    
      -8.988963       2.381138       5.325532       0.103000                    
      -9.235552       1.920726       7.027171       0.103000                    
      -7.537002       0.985773       6.089341      -0.006000                    
      -7.503094       0.162156       6.802382       0.103000                    
      -7.256496       0.622572       5.100739       0.103000                    
      -6.387156       2.275340       6.604869      -0.200000                    
      -4.470376      -5.220742       8.507533      -0.200000                    
      -4.753375      -4.029061       7.184366      -0.006000                    
      -3.943046      -3.300242       7.172022       0.103000                    
      -4.788655      -4.549768       6.227523       0.103000                    
      -6.082259      -3.309335       7.421965      -0.006000                    
      -6.892597      -4.038158       7.434313       0.103000                    
      -6.046987      -2.788631       8.378811       0.103000                    
      -6.365266      -2.117658       6.098802      -0.200000                    
      -2.753444      -8.932241       6.526391      -0.200000                    