%nprocshared=4                                                                       
%mem=8GB                                                                             
#P pop=chelpg cam-b3lyp/gen scf=qc int=ultrafine charge td(nstates=10)               
                                                                                     
pNA CAM-B3LYP def2-TZVPD Single point - solvent def2-SV(P)                           
                                                                                     
0 1                                                                                  
 C       1.389235       0.000000      -0.000000                                 
 C       0.000000       0.000000      -0.000000                                 
 C      -0.711164       1.193419       0.000000                                 
 C      -0.034074       2.386367       0.000141                                 
 C       1.370482       2.412065       0.000933                                 
 C       2.067428       1.192342       0.000144                                 
 H       1.924301      -0.937208       0.000967                                 
 H      -1.790186       1.173300       0.000962                                 
 H      -0.583208       3.318526      -0.000772                                 
 H       3.149318       1.197759      -0.000767                                 
 N      -0.711160      -1.251627       0.001756                                 
 O      -1.932441      -1.229701       0.002542                                 
 O      -0.067142      -2.289538       0.002483                                 
 N       2.040236       3.590780      -0.024683                                 
 H       1.546357       4.451509       0.132529                                 
 H       3.032458       3.607145       0.132525                                 
Cl       0.272432       5.817994       0.919488                                 
 C      -1.027727       6.273180       2.082761                                 
 H      -0.587857       6.789640       2.935833                                 
 H      -1.743326       6.930640       1.589228                                 
 C      -1.744632       5.010976       2.565747                                 
 H      -2.184501       4.494516       1.712674                                 
 H      -1.029030       4.353509       3.059287                                 
Cl      -3.044789       5.466156       3.729027                                 
Cl      -0.876012      -5.663013      -2.375558                                 
 C      -0.677303      -5.610804      -0.584272                                 
 H      -0.093615      -6.471505      -0.257988                                 
 H      -0.160900      -4.693320      -0.302335                                 
 C      -2.053631      -5.646232       0.082715                                 
 H      -2.637308      -4.785537      -0.243576                                 
 H      -2.570033      -6.563724      -0.199229                                 
Cl      -1.854920      -5.594030       1.873995                                 
Cl       3.395810      -1.518551      -2.840389                                 
 C       2.645864      -3.036774      -2.221149                                 
 H       1.788983      -2.789720      -1.594524                                 
 H       2.317605      -3.648958      -3.061021                                 
 C       3.673517      -3.813317      -1.395721                                 
 H       4.530397      -4.060363      -2.022339                                 
 H       4.001785      -3.201123      -0.555843                                 
Cl       2.923572      -5.331540      -0.776481                                 
Cl       3.950895       4.176206      -5.683614                                 
 C       3.943838       4.163612      -3.880645                                 
 H       4.274644       5.133345      -3.509005                                 
 H       2.934389       3.962061      -3.522403                                 
 C       4.890986       3.074032      -3.374599                                 
 H       4.560180       2.104298      -3.746238                                 
 H       5.900435       3.275583      -3.732840                                 
Cl       4.883930       3.061438      -1.571629                                 
Cl       4.992969       6.108112       1.506318                                 
 C       5.244800       6.257915      -0.272724                                 
 H       4.592550       5.556314      -0.792617                                 
 H       5.010764       7.274414      -0.588729                                 
 C       6.703431       5.942838      -0.609592                                 
 H       7.355690       6.644442      -0.089699                                 
 H       6.937476       4.926342      -0.293588                                 
Cl       6.955261       6.092641      -2.388635                                 
                                                                                
      -0.957684       1.410576       3.767933      -0.200000                    
      -0.857646      -0.379819       3.956003      -0.006000                    
      -0.093044      -0.773571       3.286458       0.103000                    
      -0.598957      -0.623267       4.986397       0.103000                    
      -2.209902      -1.005361       3.608896      -0.006000                    
      -2.974504      -0.611608       4.278441       0.103000                    
      -2.468579      -0.761917       2.578509       0.103000                    
      -2.109861      -2.795769       3.796968      -0.200000                    
      -6.874037       3.906245      -0.377991      -0.200000                    
      -5.181832       3.481796      -0.833161      -0.006000                    
      -4.748148       2.842132      -0.064602       0.103000                    
      -5.183300       2.954290      -1.786944       0.103000                    
      -4.351755       4.760600      -0.959592      -0.006000                    
      -4.785438       5.400264      -1.728151       0.103000                    
      -4.350286       5.288098      -0.005817       0.103000                    
      -2.659549       4.336143      -1.414769      -0.200000                    
       7.441154      -1.094851       2.603136      -0.200000                    
       5.899336      -0.775942       3.481745      -0.006000                    
       5.731034      -1.561943       4.217809       0.103000                    
       5.961350       0.187902       3.986835       0.103000                    
       4.739220      -0.754833       2.484720      -0.006000                    
       4.907532       0.031170       1.748656       0.103000                    
       4.677206      -1.718677       1.979629       0.103000                    
       3.197402      -0.435924       3.363328      -0.200000                    
      -1.160452      -1.600904      -4.408568      -0.200000                    
      -2.339497      -0.274239      -4.725850      -0.006000                    
      -1.884294       0.467516      -5.382022       0.103000                    
      -3.229086      -0.684904      -5.203290       0.103000                    
      -2.730701       0.387428      -3.403163      -0.006000                    
      -3.185903      -0.354327      -2.746991       0.103000                    
      -1.841121       0.798091      -2.925722       0.103000                    
      -3.909744       1.714085      -3.720451      -0.200000                    
      -6.512423      -3.204442       1.790933      -0.200000                    
      -5.492563      -2.121381       0.772252      -0.006000                    
      -4.587132      -1.855670       1.317715       0.103000                    
      -5.223550      -2.636637      -0.149745       0.103000                    
      -6.275934      -0.851110       0.435966      -0.006000                    
      -7.181367      -1.116813      -0.109491       0.103000                    
      -6.544948      -0.335854       1.357963       0.103000                    
      -5.256074       0.231951      -0.582715      -0.200000                    
       8.201735      -1.984785      -4.171590      -0.200000                    
       7.232067      -1.748147      -2.670071      -0.006000                    
       6.280362      -2.270692      -2.765751       0.103000                    
       7.780879      -2.145667      -1.816431       0.103000                    
       6.974439      -0.254974      -2.459498      -0.006000                    
       7.926144       0.267578      -2.363812       0.103000                    
       6.425627       0.142546      -3.313138       0.103000                    
       6.004770      -0.018329      -0.957973      -0.200000                    
       2.364261      -7.181323       1.766160      -0.200000                    
       1.427148      -6.672601       3.220101      -0.006000                    
       0.413631      -7.068425       3.156224       0.103000                    
       1.911606      -7.056821       4.117650       0.103000                    
       1.374339      -5.145028       3.283936      -0.006000                    
       2.387853      -4.749189       3.347812       0.103000                    
       0.889871      -4.760809       2.386388       0.103000                    
       0.437222      -4.636292       4.737876      -0.200000                    
       4.481208       2.158948       6.283411      -0.200000                    
       3.042009       2.707632       5.346050      -0.006000                    
       2.831920       1.992589       4.550739       0.103000                    
       2.180381       2.776560       6.009934       0.103000                    
       3.325054       4.081079       4.734555      -0.006000                    
       3.535153       4.796123       5.529865       0.103000                    
       4.186693       4.012152       4.070669       0.103000                    
       1.885864       4.629764       3.797193      -0.200000                    
       0.891071       2.066545      -3.914505      -0.200000                    
       1.311653       1.478558      -5.566261      -0.006000                    
       2.395566       1.449822      -5.676917       0.103000                    
       0.904814       0.477721      -5.710449       0.103000                    
       0.717856       2.425213      -6.611079      -0.006000                    
      -0.366067       2.453947      -6.500423       0.103000                    
       1.124686       3.426048      -6.466891       0.103000                    
       1.138437       1.837232      -8.262843      -0.200000                    
      -8.483454       2.919230       4.457968      -0.200000                    
      -7.238351       2.050791       3.485123      -0.006000                    
      -7.278133       0.985369       3.711458       0.103000                    
      -7.433764       2.204573       2.423948       0.103000                    
      -5.850658       2.593652       3.831490      -0.006000                    
      -5.810874       3.659068       3.605162       0.103000                    
      -5.655253       2.439868       4.892666       0.103000                    
      -4.605554       1.725207       2.858652      -0.200000                    
       2.925876       7.679799      -2.365526      -0.200000                    
       2.528131       9.360241      -2.883887      -0.006000                    
       2.234871       9.949013      -2.014821       0.103000                    
       3.402327       9.812984      -3.351575       0.103000                    
       1.374390       9.324557      -3.887887      -0.006000                    
       1.667649       8.735785      -4.756954       0.103000                    
       0.500182       8.871826      -3.420200       0.103000                    
       0.976643      11.005006      -4.406256      -0.200000                    
       7.117133       2.968737       1.873398      -0.200000                    
       8.288380       2.284523       0.685541      -0.006000                    
       8.407912       1.216442       0.866750       0.103000                    
       7.914238       2.442039      -0.325966       0.103000                    
       9.640643       2.982373       0.842905      -0.006000                    
       9.521110       4.050453       0.661697       0.103000                    
      10.014783       2.824863       1.854406       0.103000                    
      10.811890       2.298159      -0.344952      -0.200000                    
       0.096700      10.557487       0.799484      -0.200000                    
      -0.887863       9.513808      -0.292419      -0.006000                    
      -0.666324       9.762473      -1.330224       0.103000                    
      -0.646244       8.466798      -0.109877       0.103000                    
      -2.374527       9.748773      -0.018501      -0.006000                    
      -2.596065       9.500109       1.019319       0.103000                    
      -2.616148      10.795792      -0.201036       0.103000                    
      -3.359092       8.705102      -1.110398      -0.200000                    
      -1.517004       7.600080      -5.007836      -0.200000                    
      -3.231888       7.169708      -4.654436      -0.006000                    
      -3.470888       7.442828      -3.626687       0.103000                    
      -3.889855       7.708443      -5.336154       0.103000                    
      -3.428434       5.663991      -4.840197      -0.006000                    
      -3.189436       5.390880      -5.867939       0.103000                    
      -2.770459       5.125266      -4.158472       0.103000                    
      -5.143318       5.233619      -4.486796      -0.200000                    
      -7.146053      -4.096048      -2.152931      -0.200000                    
      -6.239690      -3.423451      -3.558988      -0.006000                    
      -6.935930      -3.200422      -4.367332       0.103000                    
      -5.727414      -2.509753      -3.257914       0.103000                    
      -5.211565      -4.448804      -4.040615      -0.006000                    
      -4.515326      -4.671833      -3.232271       0.103000                    
      -5.723843      -5.362494      -4.341682       0.103000                    
      -4.305204      -3.776199      -5.446665      -0.200000                    
       7.067767      -7.842513       0.266388      -0.200000                    
       7.596083      -6.128094       0.446521      -0.006000                    
       7.848882      -5.933117       1.488631       0.103000                    
       8.470399      -5.949411      -0.179254       0.103000                    
       6.461729      -5.196896       0.014726      -0.006000                    
       6.208927      -5.391866      -1.027391       0.103000                    
       5.587411      -5.375579       0.640502       0.103000                    
       6.990042      -3.482471       0.194852      -0.200000                    
      -6.496433      -4.335943       5.571687      -0.200000                    
      -5.531872      -2.812619       5.565131      -0.006000                    
      -4.570455      -2.988977       6.047349       0.103000                    
      -5.369099      -2.489769       4.536919       0.103000                    
      -6.291655      -1.724708       6.326432      -0.006000                    
      -7.253073      -1.548344       5.844206       0.103000                    
      -6.454418      -2.047556       7.354644       0.103000                    
      -5.327084      -0.201383       6.319875      -0.200000                    
       0.423506      -9.779091      -2.526618      -0.200000                    
       1.739975      -8.633487      -2.073315      -0.006000                    
       1.390209      -7.609078      -2.200368       0.103000                    
       2.020550      -8.795442      -1.032658       0.103000                    
       2.955181      -8.871937      -2.971547      -0.006000                    
       3.304937      -9.896348      -2.844493       0.103000                    
       2.674606      -8.709990      -4.012211       0.103000                    
       4.271639      -7.726336      -2.518243      -0.200000                    
       6.022265       9.942389      -1.113970      -0.200000                    
       4.915573      10.660605       0.115019      -0.006000                    
       4.374192      11.496596      -0.327660       0.103000                    
       4.205739       9.904781       0.450897       0.103000                    
       5.733037      11.157904       1.308662      -0.006000                    
       6.274410      10.321897       1.751341       0.103000                    
       6.442872      11.913720       0.972777       0.103000                    
       4.626336      11.876112       2.537645      -0.200000                    
       4.533477      -4.154521      -5.218080      -0.200000                    
       4.661580      -2.603280      -6.128039      -0.006000                    
       4.075542      -1.835810      -5.622592       0.103000                    
       5.705466      -2.293081      -6.172657       0.103000                    
       4.127347      -2.799445      -7.548053      -0.006000                    
       4.713386      -3.566920      -8.053492       0.103000                    
       3.083462      -3.109650      -7.503427       0.103000                    
       4.255453      -1.248217      -8.458012      -0.200000                    
       4.881846       0.805914      -5.887146      -0.200000                    
       6.330047       0.811906      -6.961226      -0.006000                    
       6.733086      -0.198189      -7.033781       0.103000                    
       6.045382       1.161883      -7.953406       0.103000                    
       7.393641       1.744093      -6.378006      -0.006000                    
       6.990611       2.754191      -6.305451       0.103000                    
       7.678306       1.394118      -5.385812       0.103000                    
       8.841841       1.750085      -7.452086      -0.200000                    
      -5.272361       6.975913       1.629496      -0.200000                    
      -6.991032       7.106606       1.100330      -0.006000                    
      -7.476175       6.135427       1.197303       0.103000                    
      -7.508915       7.835545       1.723567       0.103000                    
      -7.041894       7.557817      -0.360530      -0.006000                    
      -6.556754       8.529003      -0.457511       0.103000                    
      -6.524012       6.828878      -0.983768       0.103000                    
      -8.760567       7.688517      -0.889690      -0.200000                    
      -3.350886       4.584365       7.151915      -0.200000                    
      -1.760738       5.101069       7.826818      -0.006000                    
      -1.633940       6.173375       7.678411       0.103000                    
      -1.727401       4.875076       8.892536       0.103000                    
      -0.635332       4.351227       7.111588      -0.006000                    
      -0.762130       3.278921       7.259993       0.103000                    
      -0.668679       4.577218       6.045868       0.103000                    
       0.954805       4.867929       7.786490      -0.200000                    
       2.720517       8.913401       4.303532      -0.200000                    
       2.153343      10.021688       5.607716      -0.006000                    
       3.011748      10.396948       6.164780       0.103000                    
       1.613541      10.858444       5.164534       0.103000                    
       1.224252       9.260675       6.555353      -0.006000                    
       0.365847       8.885416       5.998289       0.103000                    
       1.764056       8.423913       6.998542       0.103000                    
       0.657080      10.368956       7.859531      -0.200000                    
       0.660842      -3.928849      -5.989701      -0.200000                    
       1.223191      -5.501166      -6.669814      -0.006000                    
       0.752128      -5.667573      -7.638525       0.103000                    
       2.306087      -5.478260      -6.791254       0.103000                    
       0.841392      -6.634905      -5.716251      -0.006000                    
       1.312445      -6.468499      -4.747540       0.103000                    
      -0.241504      -6.657811      -5.594810       0.103000                    
       1.403742      -8.207230      -6.396357      -0.200000                    
      10.197850       6.075941       2.477427      -0.200000                    
       8.632817       6.854540       2.919521      -0.006000                    
       8.003957       6.935790       2.033034       0.103000                    
       8.125389       6.249816       3.671045       0.103000                    
       8.899647       8.250944       3.484510      -0.006000                    
       9.528515       8.169703       4.370991       0.103000                    
       9.407075       8.855660       2.732980       0.103000                    
       7.334623       9.029545       3.926605      -0.200000                    
      -2.849379      -8.631427       4.642056      -0.200000                    
      -3.443670      -7.326322       5.734950      -0.006000                    
      -4.292055      -6.822612       5.271926       0.103000                    
      -3.753311      -7.760880       6.685330       0.103000                    
      -2.321859      -6.315117       5.978649      -0.006000                    
      -1.473473      -6.818827       6.441673       0.103000                    
      -2.012218      -5.880558       5.028268       0.103000                    
      -2.916151      -5.010011       7.071543      -0.200000                    
      -5.262525     -11.505559       1.146107      -0.200000                    
      -3.866482     -10.789207       0.257985      -0.006000                    
      -3.155762     -11.575213       0.003054       0.103000                    
      -4.222683     -10.311194      -0.654457       0.103000                    
      -3.178828      -9.748241       1.143376      -0.006000                    
      -3.889539      -8.962234       1.398307       0.103000                    
      -2.822626     -10.226261       2.055826       0.103000                    
      -1.782787      -9.031883       0.255261      -0.200000                    
       7.162448       6.069283      -7.800550      -0.200000                    
       6.436618       7.084636      -6.499350      -0.006000                    
       5.741533       7.798826      -6.940585       0.103000                    
       5.903590       6.446320      -5.794806       0.103000                    
       7.545094       7.840331      -5.764112      -0.006000                    
       8.240179       7.126140      -5.322876       0.103000                    
       8.078123       8.478646      -6.468655       0.103000                    
       6.819266       8.855676      -4.462918      -0.200000                    
      11.920593       6.201783      -4.077085      -0.200000                    
      10.858381       4.946624      -3.337413      -0.006000                    
      11.466404       4.249407      -2.761112       0.103000                    
      10.132933       5.425681      -2.680027       0.103000                    
      10.121206       4.187083      -4.441964      -0.006000                    
       9.513183       4.884299      -5.018264       0.103000                    
      10.846656       3.708020      -5.099343       0.103000                    
       9.058995       2.931918      -3.702285      -0.200000                    
       3.956505      -6.034955       8.029800      -0.200000                    
       5.189367      -6.533318       6.812145      -0.006000                    
       6.182131      -6.485558       7.259402       0.103000                    
       4.986362      -7.553188       6.485656       0.103000                    
       5.127121      -5.591184       5.608426      -0.006000                    
       4.134367      -5.638941       5.161169       0.103000                    
       5.330124      -4.571306       5.934908       0.103000                    
       6.359981      -6.089540       4.390763      -0.200000                    
       8.403859       2.076849       5.803124      -0.200000                    
       9.754672       2.539888       4.702287      -0.006000                    
      10.315148       1.648835       4.419769       0.103000                    
       9.349084       3.012993       3.808086       0.103000                    
      10.684304       3.520128       5.420121      -0.006000                    
      10.123828       4.411181       5.702639       0.103000                    
      11.089903       3.047025       6.314322       0.103000                    
      12.035128       3.983170       4.319298      -0.200000                    
      -1.298446      -0.353982       7.558007      -0.200000                    
      -2.323751      -0.477873       9.035942      -0.006000                    
      -1.719455      -0.261626       9.916828       0.103000                    
      -3.142320       0.238880       8.971704       0.103000                    
      -2.893528      -1.893494       9.144088      -0.006000                    
      -3.497833      -2.109743       8.263203       0.103000                    
      -2.074960      -2.610245       9.208326       0.103000                    
      -3.918843      -2.017385      10.622023      -0.200000                    
      -5.536808      12.102412       5.363388      -0.200000                    
      -4.398735      10.786405       4.890338      -0.006000                    
      -4.201358      10.149166       5.752236       0.103000                    
      -4.842519      10.191376       4.092279       0.103000                    
      -3.086135      11.399570       4.398939      -0.006000                    
      -3.283512      12.036808       3.537040       0.103000                    
      -2.642351      11.994597       5.196995       0.103000                    
      -1.948062      10.083562       3.925888      -0.200000                    
     -10.091028      -0.796097       0.342777      -0.200000                    
     -10.389409      -1.346120      -1.348186      -0.006000                    
      -9.704221      -2.157691      -1.592775       0.103000                    
     -11.416996      -1.697685      -1.440173       0.103000                    
     -10.161923      -0.179632      -2.311475      -0.006000                    
     -10.847113       0.631938      -2.066886       0.103000                    
      -9.134337       0.171925      -2.219495       0.103000                    
     -10.460305      -0.729655      -4.002438      -0.200000                    
      -7.863364      -9.494204      -2.004145      -0.200000                    
      -7.932663      -8.938308      -0.290364      -0.006000                    
      -8.847367      -8.367822      -0.129888       0.103000                    
      -7.922392      -9.803012       0.373055       0.103000                    
      -6.721229      -8.052979       0.007934      -0.006000                    
      -5.806516      -8.623456      -0.152535       0.103000                    
      -6.731502      -7.188269      -0.655479       0.103000                    
      -6.790530      -7.497076       1.721722      -0.200000                    
       3.517272      -1.181069       7.677872      -0.200000                    
       1.980276      -0.496182       8.325544      -0.006000                    
       1.647972       0.320815       7.685196       0.103000                    
       1.216877      -1.273802       8.348364       0.103000                    
       2.213829       0.030115       9.742859      -0.006000                    
       2.546136      -0.786895      10.383206       0.103000                    
       2.977231       0.807722       9.720040       0.103000                    
       0.676835       0.714988      10.390532      -0.200000                    
      -9.954213      -5.121258       0.159786      -0.200000                    
      -9.990110      -3.984591       1.558956      -0.006000                    
      -9.309529      -3.154387       1.370512       0.103000                    
     -11.002193      -3.602255       1.690904       0.103000                    
      -9.554987      -4.722340       2.826560      -0.006000                    
     -10.235579      -5.552539       3.015011       0.103000                    
      -8.542913      -5.104678       2.694613       0.103000                    
      -9.590884      -3.585672       4.225730      -0.200000                    
       9.249708       5.286437       8.445306      -0.200000                    