%nprocshared=4                                                                       
%mem=8GB                                                                             
#P pop=chelpg cam-b3lyp/gen scf=qc int=ultrafine charge td(nstates=10)               
                                                                                     
pNA CAM-B3LYP def2-TZVPD Single point - solvent def2-SV(P)                           
                                                                                     
0 1                                                                                  
 C       1.389235       0.000000      -0.000000                                 
 C       0.000000       0.000000      -0.000000                                 
 C      -0.711164       1.193419       0.000000                                 
 C      -0.034074       2.386367       0.000141                                 
 C       1.370482       2.412065       0.000933                                 
 C       2.067428       1.192342       0.000144                                 
 H       1.924301      -0.937208       0.000967                                 
 H      -1.790186       1.173300       0.000962                                 
 H      -0.583208       3.318526      -0.000772                                 
 H       3.149318       1.197759      -0.000767                                 
 N      -0.711160      -1.251627       0.001756                                 
 O      -1.932441      -1.229701       0.002542                                 
 O      -0.067142      -2.289538       0.002483                                 
 N       2.040236       3.590780      -0.024683                                 
 H       1.546357       4.451509       0.132529                                 
 H       3.032458       3.607145       0.132525                                 
Cl       2.932951      -4.279041       1.160910                                 
 C       2.228685      -3.528548       2.641355                                 
 H       1.143214      -3.492563       2.549559                                 
 H       2.500256      -4.122094       3.514230                                 
 C       2.773704      -2.108104       2.801587                                 
 H       3.859175      -2.144088       2.893394                                 
 H       2.502145      -1.514564       1.928713                                 
Cl       2.069440      -1.357620       4.282033                                 
Cl       2.147033       5.149343       2.934585                                 
 C       3.784736       5.903529       2.928285                                 
 H       3.755031       6.841832       3.482023                                 
 H       4.498499       5.226739       3.397794                                 
 C       4.214796       6.176721       1.485805                                 
 H       4.244500       5.238416       0.932057                                 
 H       3.501032       6.853508       1.016287                                 
Cl       5.852489       6.930902       1.479496                                 
Cl      -3.856798       4.480646      -3.156585                                 
 C      -2.507092       4.842352      -2.017142                                 
 H      -2.892557       5.395667      -1.160879                                 
 H      -2.059762       3.909026      -1.675420                                 
 C      -1.447720       5.683215      -2.732011                                 
 H      -1.062256       5.129900      -3.588273                                 
 H      -1.895051       6.616540      -3.073732                                 
Cl      -0.098016       6.044930      -1.592568                                 
Cl       5.505076      -0.624488       1.128679                                 
 C       5.104290      -1.534954      -0.375116                                 
 H       4.713707      -2.517848      -0.111850                                 
 H       4.353752      -0.985786      -0.943484                                 
 C       6.366602      -1.698974      -1.223643                                 
 H       6.757185      -0.716079      -1.486909                                 
 H       7.117140      -2.248141      -0.655275                                 
Cl       5.965825      -2.609436      -2.727439                                 
Cl      -1.866128      -3.677960       3.873906                                 
 C      -2.422807      -2.031549       3.394022                                 
 H      -2.777468      -2.053648       2.363640                                 
 H      -3.233358      -1.715995       4.050819                                 
 C      -1.259051      -1.045491       3.511141                                 
 H      -0.904391      -1.023393       4.541512                                 
 H      -0.448504      -1.361036       2.854332                                 
Cl      -1.815730       0.600919       3.031246                                 
                                                                                
       5.247974       2.714505      -1.029838      -0.200000                    
       6.902941       2.297811      -0.448168      -0.006000                    
       7.194617       2.987981       0.343355       0.103000                    
       6.906587       1.278763      -0.061558       0.103000                    
       7.893638       2.405828      -1.608869      -0.006000                    
       7.601962       1.715657      -2.400391       0.103000                    
       7.889993       3.424876      -1.995478       0.103000                    
       9.548606       1.989133      -1.027198      -0.200000                    
      -5.883852       0.540454       2.366869      -0.200000                    
      -4.987539       0.848685       0.833084      -0.006000                    
      -4.628105       1.877575       0.822484       0.103000                    
      -4.140065       0.166804       0.763894       0.103000                    
      -5.921426       0.623043      -0.357435      -0.006000                    
      -6.280849      -0.405844      -0.346836       0.103000                    
      -6.768890       1.304927      -0.288246       0.103000                    
      -5.025115       0.931283      -1.891222      -0.200000                    
      -1.903296       6.383842       4.947532      -0.200000                    
      -1.868623       5.833354       3.230966      -0.006000                    
      -2.203430       6.643001       2.582652       0.103000                    
      -0.851860       5.548233       2.961063       0.103000                    
      -2.796983       4.629096       3.062826      -0.006000                    
      -2.462186       3.819446       3.711140       0.103000                    
      -3.813752       4.914206       3.332741       0.103000                    
      -2.762319       4.078605       1.346261      -0.200000                    
       4.088979       1.493886       6.436782      -0.200000                    
       4.795591       2.104904       4.894624      -0.006000                    
       4.892823       3.189372       4.943774       0.103000                    
       5.778131       1.658300       4.742813       0.103000                    
       3.879108       1.727935       3.729153      -0.006000                    
       3.781877       0.643468       3.680013       0.103000                    
       2.896572       2.174531       3.880975       0.103000                    
       4.585723       2.338944       2.187005      -0.200000                    
      -5.510771      -4.031981       0.646280      -0.200000                    
      -4.017799      -4.627282       1.463351      -0.006000                    
      -3.207890      -3.915430       1.304417       0.103000                    
      -4.205273      -4.732019       2.531924       0.103000                    
      -3.624102      -5.985493       0.879723      -0.006000                    
      -4.434011      -6.697344       1.038667       0.103000                    
      -3.436618      -5.880754      -0.188850       0.103000                    
      -2.131121      -6.580791       1.696803      -0.200000                    
       2.633079      -0.996773      -3.287169      -0.200000                    
       2.775961       0.283986      -4.548212      -0.006000                    
       2.986323       1.241444      -4.071790       0.103000                    
       3.586601       0.032229      -5.231910       0.103000                    
       1.463345       0.380521      -5.328000      -0.006000                    
       1.252984      -0.576937      -5.804421       0.103000                    
       0.652705       0.632278      -4.644301       0.103000                    
       1.606228       1.661280      -6.589042      -0.200000                    
      -4.875021      -3.757023      -4.035930      -0.200000                    
      -3.087962      -3.585884      -3.868487      -0.006000                    
      -2.830246      -3.477122      -2.815060       0.103000                    
      -2.598399      -4.471710      -4.272964       0.103000                    
      -2.619835      -2.349156      -4.637722      -0.006000                    
      -2.877541      -2.457914      -5.691140       0.103000                    
      -3.109389      -1.463326      -4.233236       0.103000                    
      -0.832766      -2.178014      -4.470280      -0.200000                    
       5.898413       3.994970      -6.396262      -0.200000                    
       4.568679       3.808682      -5.192914      -0.006000                    
       4.211077       2.779122      -5.202697       0.103000                    
       4.941050       4.054783      -4.198565       0.103000                    
       3.418670       4.750826      -5.553813      -0.006000                    
       3.776275       5.780376      -5.544038       0.103000                    
       3.046299       4.504723      -6.548171       0.103000                    
       2.088939       4.564528      -4.350473      -0.200000                    
       1.404486      11.159436      -0.915449      -0.200000                    
       0.177937      10.899996       0.380409      -0.006000                    
       0.230550      11.717197       1.099706       0.103000                    
      -0.817573      10.868778      -0.062212       0.103000                    
       0.460656       9.575756       1.092341      -0.006000                    
       0.408043       8.758554       0.373055       0.103000                    
       1.456166       9.606975       1.534972       0.103000                    
      -0.765893       9.316316       2.388210      -0.200000                    
       7.189636       5.113505       4.954989      -0.200000                    
       7.585330       4.685110       3.248895      -0.006000                    
       7.910203       3.645818       3.200980       0.103000                    
       6.700972       4.818665       2.626013       0.103000                    
       8.707235       5.593366       2.742157      -0.006000                    
       8.382376       6.632651       2.790071       0.103000                    
       9.591594       5.459811       3.365039       0.103000                    
       9.102930       5.164969       1.036052      -0.200000                    
       3.874320       7.668071      -2.809506      -0.200000                    
       2.619080       8.381797      -3.889209      -0.006000                    
       2.221697       7.607995      -4.545886       0.103000                    
       1.811970       8.795329      -3.284657       0.103000                    
       3.244803       9.493979      -4.732955      -0.006000                    
       3.642183      10.267793      -4.076268       0.103000                    
       4.051911       9.080458      -5.337507       0.103000                    
       1.989563      10.207706      -5.812647      -0.200000                    
       2.665974      -8.584166      -2.697650      -0.200000                    
       2.918105      -7.801328      -1.093134      -0.006000                    
       3.842309      -8.171241      -0.649302       0.103000                    
       2.983595      -6.721040      -1.221928       0.103000                    
       1.742209      -8.134238      -0.172907      -0.006000                    
       0.818006      -7.764325      -0.616728       0.103000                    
       1.676722      -9.214536      -0.044111       0.103000                    
       1.994341      -7.351401       1.431609      -0.200000                    
       4.662410      -3.550191       5.300528      -0.200000                    
       6.179454      -2.625626       5.608274      -0.006000                    
       6.645146      -2.986001       6.525433       0.103000                    
       6.865779      -2.764751       4.773078       0.103000                    
       5.849777      -1.138929       5.754490      -0.006000                    
       5.384095      -0.778552       4.837320       0.103000                    
       5.163463      -0.999801       6.589684       0.103000                    
       7.366832      -0.214362       6.062225      -0.200000                    
      -1.893903      -7.083725      -2.580430      -0.200000                    
      -3.048029      -8.284085      -3.271839      -0.006000                    
      -2.726378      -8.561280      -4.275641       0.103000                    
      -3.071739      -9.171582      -2.639609       0.103000                    
      -4.446646      -7.667642      -3.337154      -0.006000                    
      -4.768301      -7.390439      -2.333353       0.103000                    
      -4.422936      -6.780145      -3.969384       0.103000                    
      -5.600771      -8.868002      -4.028563      -0.200000                    
       1.827027      -5.677923       6.766977      -0.200000                    
       1.044706      -4.072719       6.517623      -0.006000                    
       1.767899      -3.281333       6.714242       0.103000                    
       0.692329      -3.995871       5.489097       0.103000                    
      -0.140417      -3.928933       7.474235      -0.006000                    
      -0.863613      -4.720309       7.277616       0.103000                    
       0.211967      -4.005769       8.502760       0.103000                    
      -0.922741      -2.323719       7.224880      -0.200000                    
      -5.594862       6.279442      -0.300168      -0.200000                    
      -6.927267       5.461767       0.598188      -0.006000                    
      -7.826580       5.449111      -0.017479       0.103000                    
      -6.633128       4.438920       0.833182       0.103000                    
      -7.208847       6.221707       1.895692      -0.006000                    
      -6.309534       6.234364       2.511358       0.103000                    
      -7.502983       7.244545       1.660698       0.103000                    
      -8.541248       5.404023       2.794047      -0.200000                    
      -5.005674       1.700534       6.249039      -0.200000                    
      -5.124145      -0.084657       6.025354      -0.006000                    
      -4.688688      -0.360430       5.065008       0.103000                    
      -4.584404      -0.588170       6.827305       0.103000                    
      -6.594398      -0.506203       6.057887      -0.006000                    
      -7.029855      -0.230430       7.018233       0.103000                    
      -7.134142      -0.002681       5.255925       0.103000                    
      -6.712872      -2.291385       5.834191      -0.200000                    
       5.560036      -8.051143       1.689315      -0.200000                    
       5.502467      -6.249064       1.678561      -0.006000                    
       4.962911      -5.907826       0.795177       0.103000                    
       4.992539      -5.896239       2.574910       0.103000                    
       6.927590      -5.693514       1.651219      -0.006000                    
       7.467155      -6.034750       2.534602       0.103000                    
       7.437528      -6.046338       0.754869       0.103000                    
       6.870030      -3.891435       1.640465      -0.200000                    
      -0.457432       9.312366       6.466550      -0.200000                    
       1.105564       8.557312       6.954356      -0.006000                    
       1.930249       9.091495       6.482680       0.103000                    
       1.211580       8.608586       8.037891       0.103000                    
       1.125729       7.093795       6.509251      -0.006000                    
       0.301044       6.559612       6.980917       0.103000                    
       1.019714       7.042521       5.425716       0.103000                    
       2.688716       6.338738       6.997057      -0.200000                    
      -3.780910      -0.101929      -7.509097      -0.200000                    
      -4.672602       0.702853      -6.164418      -0.006000                    
      -4.441599       0.202341      -5.224178       0.103000                    
      -4.371561       1.748582      -6.103134       0.103000                    
      -6.177114       0.620555      -6.429081      -0.006000                    
      -6.408108       1.121070      -7.369312       0.103000                    
      -6.478146      -0.425171      -6.490356       0.103000                    
      -7.068797       1.425341      -5.084393      -0.200000                    
       6.982808      12.913882       2.653484      -0.200000                    
       5.549348      11.950391       2.135959      -0.006000                    
       4.637393      12.458890       2.448534       0.103000                    
       5.553836      11.846088       1.051039       0.103000                    
       5.606514      10.564472       2.781191      -0.006000                    
       6.518460      10.055970       2.468616       0.103000                    
       5.602017      10.668772       3.866112       0.103000                    
       4.173043       9.600986       2.263666      -0.200000                    
       2.419151      -2.383737      -7.275137      -0.200000                    
       3.003487      -3.849271      -6.402426      -0.006000                    
       2.575556      -3.870409      -5.400241       0.103000                    
       2.698143      -4.742641      -6.947042       0.103000                    
       4.529616      -3.809476      -6.303925      -0.006000                    
       4.957550      -3.788347      -7.306109       0.103000                    
       4.834962      -2.916114      -5.759298       0.103000                    
       5.113951      -5.275010      -5.431214      -0.200000                    
       9.344565       1.282104       2.130263      -0.200000                    
       9.480397      -0.469677       1.725556      -0.006000                    
       8.950657      -1.058032       2.474647       0.103000                    
       9.042277      -0.651160       0.744209       0.103000                    
      10.955156      -0.876135       1.708077      -0.006000                    
      11.484897      -0.287781       0.958985       0.103000                    
      11.393278      -0.694662       2.689435       0.103000                    
      11.090987      -2.627916       1.303379      -0.200000                    
      -1.117688       0.505349       9.102194      -0.200000                    
      -0.907114       1.704312       7.772148      -0.006000                    
      -1.184162       1.246432       6.822664       0.103000                    
      -1.543768       2.569203       7.958143       0.103000                    
       0.554943       2.150884       7.714921      -0.006000                    
       0.831991       2.608764       8.664404       0.103000                    
       1.191597       1.285993       7.528926       0.103000                    
       0.765514       3.349856       6.384875      -0.200000                    
       7.904459       5.364255      -3.955189      -0.200000                    
       9.585816       5.956452      -4.225642      -0.006000                    
       9.554021       6.959219      -4.651526       0.103000                    
      10.119620       5.981639      -3.275718       0.103000                    
      10.308683       5.015553      -5.191351      -0.006000                    
      10.340488       4.012789      -4.765477       0.103000                    
       9.774881       4.990355      -6.141284       0.103000                    
      11.990044       5.607741      -5.461803      -0.200000                    
      -6.843736      11.127545      -0.274691      -0.200000                    
      -5.067924      10.817117      -0.308390      -0.006000                    
      -4.548946      11.711607      -0.652614       0.103000                    
      -4.724601      10.560582       0.693754       0.103000                    
      -4.770957       9.657507      -1.261020      -0.006000                    
      -5.289935       8.763018      -0.916797       0.103000                    
      -5.114289       9.914038      -2.263164       0.103000                    
      -2.995154       9.347075      -1.294719      -0.200000                    
       8.712550       8.130775      -0.855100      -0.200000                    
       7.700354       9.586388      -1.182983      -0.006000                    
       6.836897       9.586139      -0.517868       0.103000                    
       8.291094      10.486156      -1.011514       0.103000                    
       7.223778       9.559237      -2.636429      -0.006000                    
       8.087234       9.559484      -3.301553       0.103000                    
       6.633041       8.659461      -2.807897       0.103000                    
       6.211584      11.014838      -2.964321      -0.200000                    
      -0.125593      -4.837104      -6.867273      -0.200000                    
      -0.945754      -6.392162      -6.467241      -0.006000                    
      -0.249211      -7.218068      -6.611056       0.103000                    
      -1.276515      -6.372157      -5.428885       0.103000                    
      -2.155934      -6.580908      -7.383821      -0.006000                    
      -2.852465      -5.755009      -7.240007       0.103000                    
      -1.825173      -6.600914      -8.422176       0.103000                    
      -2.976096      -8.135967      -6.983800      -0.200000                    
      -8.947909      -6.321721       3.423152      -0.200000                    
      -8.069587      -4.747166       3.406041      -0.006000                    
      -7.646005      -4.556412       4.392007       0.103000                    
      -7.268889      -4.785498       2.667571       0.103000                    
      -9.043198      -3.624077       3.043904      -0.006000                    
      -9.466767      -3.814837       2.057938       0.103000                    
      -9.843884      -3.585752       3.782365       0.103000                    
      -8.164865      -2.049518       3.026793      -0.200000                    
     -11.470159      -3.191766       0.152235      -0.200000                    
     -11.065813      -1.576734      -0.539941      -0.006000                    
     -11.545743      -1.467455      -1.512378       0.103000                    
     -11.420998      -0.794468       0.130747       0.103000                    
      -9.549493      -1.457366      -0.703945      -0.006000                    
      -9.069564      -1.566644       0.268502       0.103000                    
      -9.194304      -2.239641      -1.374632       0.103000                    
      -9.145144       0.157657      -1.396120      -0.200000                    
       4.886155       0.932923     -10.592009      -0.200000                    
       5.626420       1.260023      -8.980832      -0.006000                    
       6.696440       1.429583      -9.100025       0.103000                    
       5.164928       2.144289      -8.541447       0.103000                    
       5.400403       0.057743      -8.062249      -0.006000                    
       4.330383      -0.111817      -7.943055       0.103000                    
       5.861892      -0.826514      -8.501637       0.103000                    
       6.140668       0.384843      -6.451072      -0.200000                    
      -9.594285       3.601107      -2.850982      -0.200000                    
      -8.576412       4.389047      -4.113539      -0.006000                    
      -7.806657       3.692994      -4.446600       0.103000                    
      -9.201674       4.672003      -4.960259       0.103000                    
      -7.914938       5.638412      -3.528781      -0.006000                    
      -8.684694       6.334462      -3.195730       0.103000                    
      -7.289687       5.355452      -2.682060       0.103000                    
      -6.897075       6.426348      -4.791338      -0.200000                    
       4.502584       8.968976       8.291479      -0.200000                    
       5.970144       9.350230       7.315862      -0.006000                    
       5.837217      10.311516       6.819657       0.103000                    
       6.840189       9.396344       7.970712       0.103000                    
       6.181124       8.259148       6.264506      -0.006000                    
       6.314041       7.297860       6.760712       0.103000                    
       5.311070       8.213031       5.609647       0.103000                    
       7.648674       8.640399       5.288880      -0.200000                    
      -0.698858      10.493777      -3.815125      -0.200000                    
      -2.167749      10.285073      -4.839669      -0.006000                    
      -2.948747       9.793565      -4.259661       0.103000                    
      -2.521185      11.261221      -5.171603       0.103000                    
      -1.821870       9.427185      -6.058176      -0.006000                    
      -1.040863       9.918695      -6.638184       0.103000                    
      -1.468428       8.451049      -5.726243       0.103000                    
      -3.290755       9.218493      -7.082720      -0.200000                    
      -1.310920     -11.312388       2.376742      -0.200000                    
      -2.238240     -10.493557       1.065073      -0.006000                    
      -1.651845      -9.665081       0.667923       0.103000                    
      -2.446707     -11.206609       0.267547       0.103000                    
      -3.556532      -9.960268       1.629027      -0.006000                    
      -4.142926     -10.788743       2.026177       0.103000                    
      -3.348064      -9.247215       2.426553       0.103000                    
      -4.483839      -9.141443       0.317359      -0.200000                    
      -2.959426       4.948456       7.771858      -0.200000                    
      -3.643674       6.613033       7.880623      -0.006000                    
      -4.101177       6.754816       8.859653       0.103000                    
      -2.846611       7.343501       7.742565       0.103000                    
      -4.701669       6.801597       6.791827      -0.006000                    
      -4.244157       6.659816       5.812786       0.103000                    
      -5.498723       6.071132       6.929883       0.103000                    
      -5.385911       8.466185       6.900580      -0.200000                    
       9.663349      -1.357012      -4.053043      -0.200000                    
       8.769300      -2.352488      -5.261587      -0.006000                    
       8.974343      -3.408440      -5.085898       0.103000                    
       7.699440      -2.168714      -5.163921       0.103000                    
       9.224725      -1.972923      -6.671889      -0.006000                    
       9.019684      -0.916982      -6.847587       0.103000                    
      10.294587      -2.156707      -6.769555       0.103000                    
       8.330678      -2.968408      -7.880433      -0.200000                    
      -5.266102      -6.139473       5.007828      -0.200000                    
      -4.646225      -6.505908       6.660838      -0.006000                    
      -5.474483      -6.810476       7.300491       0.103000                    
      -3.914908      -7.312080       6.604453       0.103000                    
      -3.983641      -5.257056       7.245426      -0.006000                    
      -3.155373      -4.952486       6.605762       0.103000                    
      -4.714956      -4.450894       7.301802       0.103000                    
      -3.363761      -5.623500       8.898438      -0.200000                    
       0.780120       8.390500     -11.219961      -0.200000                    