%nprocshared=4                                                                       
%mem=8GB                                                                             
#P pop=chelpg cam-b3lyp/gen scf=qc int=ultrafine charge td(nstates=10)               
                                                                                     
pNA CAM-B3LYP def2-TZVPD Single point - solvent def2-SV(P)                           
                                                                                     
0 1                                                                                  
 C       1.389235       0.000000      -0.000000                                 
 C       0.000000       0.000000      -0.000000                                 
 C      -0.711164       1.193419       0.000000                                 
 C      -0.034074       2.386367       0.000141                                 
 C       1.370482       2.412065       0.000933                                 
 C       2.067428       1.192342       0.000144                                 
 H       1.924301      -0.937208       0.000967                                 
 H      -1.790186       1.173300       0.000962                                 
 H      -0.583208       3.318526      -0.000772                                 
 H       3.149318       1.197759      -0.000767                                 
 N      -0.711160      -1.251627       0.001756                                 
 O      -1.932441      -1.229701       0.002542                                 
 O      -0.067142      -2.289538       0.002483                                 
 N       2.040236       3.590780      -0.024683                                 
 H       1.546357       4.451509       0.132529                                 
 H       3.032458       3.607145       0.132525                                 
Cl       3.685514      -4.653681       2.150474                                 
 C       3.531506      -3.517534       0.758948                                 
 H       3.329927      -4.082450      -0.151082                                 
 H       2.711912      -2.823591       0.945152                                 
 C       4.834932      -2.733857       0.593840                                 
 H       5.036512      -2.168932       1.503868                                 
 H       5.654537      -3.427792       0.407638                                 
Cl       4.680938      -1.597704      -0.797693                                 
Cl       5.481122       3.968235       0.115575                                 
 C       6.703688       5.286527      -0.020202                                 
 H       7.705368       4.857865       0.008966                                 
 H       6.562762       5.817557      -0.961530                                 
 C       6.533033       6.262317       1.145618                                 
 H       5.531362       6.690979       1.116455                                 
 H       6.673967       5.731287       2.086952                                 
Cl       7.755598       7.580609       1.009842                                 
Cl      -1.710743       0.729462       3.205433                                 
 C      -3.008561      -0.514326       3.065668                                 
 H      -2.665337      -1.327701       2.426479                                 
 H      -3.245919      -0.904896       4.055141                                 
 C      -4.259434       0.120302       2.455009                                 
 H      -4.602672       0.933680       3.094202                                 
 H      -4.022081       0.510875       1.465544                                 
Cl      -5.557253      -1.123485       2.315244                                 
Cl       2.281349      -1.185922       3.926116                                 
 C       0.767661      -2.070583       4.346935                                 
 H       0.813128      -2.394879       5.386513                                 
 H      -0.089140      -1.411203       4.208941                                 
 C       0.621705      -3.292470       3.438090                                 
 H       0.576232      -2.968181       2.398523                                 
 H       1.478500      -3.951857       3.576095                                 
Cl      -0.891983      -4.177132       3.858909                                 
Cl      -2.833364      -3.687895      -3.993019                                 
 C      -3.527770      -2.443905      -2.887906                                 
 H      -4.615072      -2.519289      -2.893058                                 
 H      -3.156727      -2.608439      -1.876358                                 
 C      -3.111501      -1.050530      -3.362832                                 
 H      -2.024189      -0.975137      -3.357678                                 
 H      -3.482534      -0.885987      -4.374378                                 
Cl      -3.805896       0.193468      -2.257716                                 
                                                                                
      -2.661297       6.273233      -4.648225      -0.200000                    
      -1.655743       6.867682      -3.274772      -0.006000                    
      -0.933615       7.596904      -3.641792       0.103000                    
      -2.298587       7.335981      -2.529515       0.103000                    
      -0.913159       5.690629      -2.639583      -0.006000                    
      -1.635286       4.961406      -2.272563       0.103000                    
      -0.270314       5.222329      -3.384840       0.103000                    
       0.092395       6.285076      -1.266130      -0.200000                    
      -3.969654       2.877364      -0.120474      -0.200000                    
      -5.752348       3.057805       0.080401      -0.006000                    
      -5.991227       3.151530       1.139691       0.103000                    
      -6.089446       3.949156      -0.448557       0.103000                    
      -6.457318       1.827518      -0.493856      -0.006000                    
      -6.218439       1.733793      -1.553146       0.103000                    
      -6.120207       0.936164       0.035098       0.103000                    
      -8.240012       2.007960      -0.292981      -0.200000                    
      -0.089470       5.345415       2.617528      -0.200000                    
       0.643667       4.504259       4.033843      -0.006000                    
       1.384470       5.154287       4.499285       0.103000                    
      -0.135319       4.264310       4.757418       0.103000                    
       1.319898       3.213973       3.566641      -0.006000                    
       0.579095       2.563944       3.101199       0.103000                    
       2.098893       3.453921       2.843071       0.103000                    
       2.053035       2.372817       4.982956      -0.200000                    
      -6.596459      -5.433475       1.539059      -0.200000                    
      -4.867949      -4.920694       1.553050      -0.006000                    
      -4.758364      -4.028533       2.169463       0.103000                    
      -4.254020      -5.722944       1.962191       0.103000                    
      -4.416191      -4.611473       0.124520      -0.006000                    
      -4.525775      -5.503624      -0.491895       0.103000                    
      -5.030120      -3.809223      -0.284621       0.103000                    
      -2.687682      -4.098692       0.138511      -0.200000                    
       4.831400      -3.960759      -4.677807      -0.200000                    
       3.366535      -3.034268      -4.181107      -0.006000                    
       3.670181      -2.106425      -3.696502       0.103000                    
       2.765621      -2.805105      -5.061061       0.103000                    
       2.540032      -3.872492      -3.204046      -0.006000                    
       2.236386      -4.800335      -3.688650       0.103000                    
       3.140950      -4.101658      -2.324099       0.103000                    
       1.075171      -2.946003      -2.707353      -0.200000                    
       2.062382       0.886399      -3.646398      -0.200000                    
       0.885020       2.178255      -4.088966      -0.006000                    
       0.904127       2.962376      -3.332186       0.103000                    
       1.155251       2.600425      -5.056797       0.103000                    
      -0.521218       1.581142      -4.168413      -0.006000                    
      -0.540333       0.797023      -4.925198       0.103000                    
      -0.791457       1.158973      -3.200587       0.103000                    
      -1.698588       2.872999      -4.610986      -0.200000                    
      -3.301574       7.436458       2.699783      -0.200000                    
      -3.746277       7.498827       0.953537      -0.006000                    
      -4.557830       8.212118       0.810284       0.103000                    
      -2.880850       7.810534       0.368876       0.103000                    
      -4.199573       6.112191       0.492933      -0.006000                    
      -3.388010       5.398900       0.636190       0.103000                    
      -5.064997       5.800476       1.077609       0.103000                    
      -4.644273       6.174552      -1.253298      -0.200000                    
      -2.034086      -7.742089      -2.292563      -0.200000                    
      -0.512642      -6.853680      -1.909347      -0.006000                    
       0.338442      -7.395459      -2.321738       0.103000                    
      -0.554507      -5.855831      -2.345802       0.103000                    
      -0.357118      -6.739759      -0.391723      -0.006000                    
      -1.208197      -6.197982       0.020659       0.103000                    
      -0.315252      -7.737607       0.044732       0.103000                    
       1.164327      -5.851348      -0.008507      -0.200000                    
       6.068197      -2.057326       4.797593      -0.200000                    
       6.283463      -0.267280       4.780798      -0.006000                    
       5.393375       0.209818       5.190735       0.103000                    
       7.150296       0.000360       5.384866       0.103000                    
       6.498939       0.206950       3.342370      -0.006000                    
       7.389015      -0.270144       2.932438       0.103000                    
       5.632094      -0.060685       2.738306       0.103000                    
       6.714193       1.997001       3.325579      -0.200000                    
       6.790239       2.814639      -6.276033      -0.200000                    
       5.877125       4.069406      -5.358023      -0.006000                    
       6.469487       4.398293      -4.504287       0.103000                    
       5.673727       4.919848      -6.008661       0.103000                    
       4.555398       3.478621      -4.863688      -0.006000                    
       3.963049       3.149732      -5.717428       0.103000                    
       4.758810       2.628175      -4.213055       0.103000                    
       3.642283       4.733387      -3.945677      -0.200000                    
       3.798122       9.320317       2.980602      -0.200000                    
       2.265905       9.665206       2.095075      -0.006000                    
       2.123302      10.743241       2.021385       0.103000                    
       2.319819       9.236382       1.094509       0.103000                    
       1.089204       9.046277       2.851819      -0.006000                    
       1.231805       7.968231       2.925510       0.103000                    
       1.035290       9.475099       3.852385       0.103000                    
      -0.443024       9.391157       1.966289      -0.200000                    
       7.117401      11.033221      -2.599768      -0.200000                    
       6.171258       9.560125      -2.168949      -0.006000                    
       5.893155       9.027763      -3.078455       0.103000                    
       6.777595       8.910134      -1.538210       0.103000                    
       4.906757       9.969682      -1.411559      -0.006000                    
       5.184851      10.502045      -0.502058       0.103000                    
       4.300407      10.619678      -2.042295       0.103000                    
       3.960605       8.496588      -0.980746      -0.200000                    
      -4.822219       1.744111      -6.965137      -0.200000                    
      -4.931621       3.138201      -5.826948      -0.006000                    
      -3.933697       3.535263      -5.641405       0.103000                    
      -5.557018       3.916390      -6.264248       0.103000                    
      -5.547756       2.671493      -4.506732      -0.006000                    
      -6.545690       2.274432      -4.692280       0.103000                    
      -4.922355       1.893301      -4.069440       0.103000                    
      -5.657158       4.065583      -3.368542      -0.200000                    
       8.244185      -0.826292      -4.731112      -0.200000                    
       7.985336      -2.219074      -3.615750      -0.006000                    
       6.956489      -2.568101      -3.702652       0.103000                    
       8.667031      -3.027606      -3.879426       0.103000                    
       8.253088      -1.776115      -2.176141      -0.006000                    
       9.281936      -1.427088      -2.089239       0.103000                    
       7.571386      -0.967590      -1.912454       0.103000                    
       7.994237      -3.168907      -1.060777      -0.200000                    
      -9.952376      -4.468397      -0.797729      -0.200000                    
      -8.575899      -3.630477      -1.606533      -0.006000                    
      -7.682633      -4.251427      -1.540143       0.103000                    
      -8.820971      -3.456893      -2.654279       0.103000                    
      -8.317355      -2.290532      -0.915089      -0.006000                    
      -9.210618      -1.669572      -0.981480       0.103000                    
      -8.072290      -2.464105       0.132651       0.103000                    
      -6.940887      -1.452611      -1.723898      -0.200000                    
      -0.027492     -10.074484       1.859086      -0.200000                    
      -1.027489      -9.474245       3.234082      -0.006000                    
      -1.876819     -10.140660       3.384042       0.103000                    
      -0.421774      -9.447796       4.139802       0.103000                    
      -1.534588      -8.065713       2.919077      -0.006000                    
      -0.685256      -7.399311       2.769109       0.103000                    
      -2.140299      -8.092165       2.013347       0.103000                    
      -2.534587      -7.465484       4.294074      -0.200000                    
      -4.654396       4.188384       4.312360      -0.200000                    
      -4.595232       4.750781       6.024404      -0.006000                    
      -4.595027       5.840430       6.049361       0.103000                    
      -5.466445       4.375012       6.560832       0.103000                    
      -3.321730       4.225773       6.689888      -0.006000                    
      -3.321930       3.136126       6.664944       0.103000                    
      -2.450518       4.601532       6.153461       0.103000                    
      -3.262572       4.788163       8.401941      -0.200000                    
      -0.088812      -1.848201      -6.697700      -0.200000                    
      -1.831555      -1.458974      -6.947301      -0.006000                    
      -2.407032      -1.799508      -6.086600       0.103000                    
      -1.950773      -0.381566      -7.061117       0.103000                    
      -2.335855      -2.163310      -8.208235      -0.006000                    
      -1.760368      -1.822776      -9.068931       0.103000                    
      -2.216628      -3.240718      -8.094414       0.103000                    
      -4.078589      -1.774083      -8.457830      -0.200000                    
      -9.476299      -0.210251       2.590680      -0.200000                    
      -8.293878       0.912039       3.360919      -0.006000                    
      -7.280950       0.551207       3.182768       0.103000                    
      -8.405640       1.907968       2.932454       0.103000                    
      -8.555356       0.973153       4.866987      -0.006000                    
      -9.568271       1.333982       5.045134       0.103000                    
      -8.443592      -0.022776       5.295452       0.103000                    
      -7.372920       2.095440       5.637222      -0.200000                    
      -1.481629       7.832670      -9.503966      -0.200000                    
      -0.132353       7.432991      -8.376716      -0.006000                    
       0.553337       6.738596      -8.862122       0.103000                    
       0.401677       8.345206      -8.110939       0.103000                    
      -0.699575       6.787624      -7.110955      -0.006000                    
      -1.385274       7.482020      -6.625554       0.103000                    
      -1.233615       5.875410      -7.376736       0.103000                    
       0.649692       6.387946      -5.983709      -0.200000                    
       1.608518      -7.035512       4.096356      -0.200000                    
       2.410174      -7.166458       5.706019      -0.006000                    
       3.388905      -7.631306       5.588013       0.103000                    
       2.529523      -6.171530       6.134761       0.103000                    
       1.548699      -8.022152       6.636608      -0.006000                    
       0.569968      -7.557303       6.754613       0.103000                    
       1.429350      -9.017079       6.207866       0.103000                    
       2.350358      -8.153109       8.246263      -0.200000                    
      -2.594729       0.564312       6.625627      -0.200000                    
      -0.950483       0.869690       7.299486      -0.006000                    
      -0.289133       1.211772       6.503548       0.103000                    
      -1.011384       1.633219       8.074879       0.103000                    
      -0.397447      -0.423813       7.900615      -0.006000                    
      -1.058804      -0.765901       8.696564       0.103000                    
      -0.336553      -1.187349       7.125232       0.103000                    
       1.246787      -0.118443       8.574471      -0.200000                    
      -7.956942      -6.862184       6.517797      -0.200000                    
      -6.745397      -5.555625       6.242193      -0.006000                    
      -7.229576      -4.706694       5.759715       0.103000                    
      -6.326794      -5.240476       7.197892       0.103000                    
      -5.624382      -6.081015       5.343502      -0.006000                    
      -5.140202      -6.929936       5.825979       0.103000                    
      -6.042984      -6.396155       4.387802       0.103000                    
      -4.412837      -4.774455       5.067898      -0.200000                    
       7.787374      -8.133204       1.175943      -0.200000                    
       6.596570      -7.152509       0.242581      -0.006000                    
       5.659951      -7.703235       0.156557       0.103000                    
       6.417751      -6.209564       0.759146       0.103000                    
       7.151904      -6.870548      -1.154722      -0.006000                    
       8.088530      -6.319811      -1.068688       0.103000                    
       7.330719      -7.813491      -1.671278       0.103000                    
       5.961105      -5.889852      -2.088071      -0.200000                    
      -1.642069      -8.393033      -5.922736      -0.200000                    
      -2.173116      -6.685130      -6.150683      -0.006000                    
      -2.133220      -6.161442      -5.195642       0.103000                    
      -1.513274      -6.191329      -6.863904       0.103000                    
      -3.606849      -6.663765      -6.683859      -0.006000                    
      -3.646744      -7.187452      -7.638899       0.103000                    
      -4.266681      -7.157567      -5.970634       0.103000                    
      -4.137882      -4.955864      -6.911810      -0.200000                    
       9.840711       3.939700       5.333999      -0.200000                    
       9.452994       5.612650       4.784557      -0.006000                    
      10.257235       6.287261       5.077950       0.103000                    
       9.346762       5.623641       3.699886       0.103000                    
       8.143391       6.070479       5.429317      -0.006000                    
       7.339155       5.395869       5.135938       0.103000                    
       8.249619       6.059491       6.513997       0.103000                    
       7.755675       7.743430       4.879876      -0.200000                    
       5.730779       9.316838       8.857224      -0.200000                    
       4.831513       9.035343       7.320004      -0.006000                    
       4.427836       9.980307       6.956664       0.103000                    
       5.508054       8.618245       6.574174       0.103000                    
       3.684588       8.054917       7.572367      -0.006000                    
       4.088265       7.109953       7.935708       0.103000                    
       3.008048       8.472014       8.318196       0.103000                    
       2.785323       7.773422       6.035146      -0.200000                    
      -1.979255      11.077520       7.047960      -0.200000                    
      -1.136096       9.490193       6.905346      -0.006000                    
      -0.238165       9.608641       6.299020       0.103000                    
      -0.860199       9.134589       7.898004       0.103000                    
      -2.068688       8.475246       6.241647      -0.006000                    
      -2.966615       8.356796       6.847965       0.103000                    
      -2.344580       8.830850       5.248980       0.103000                    
      -1.225520       6.887919       6.099037      -0.200000                    
      -6.665273      -1.666754       6.397961      -0.200000                    
      -5.123091      -2.104994       7.222878      -0.006000                    
      -5.085018      -3.183826       7.373246       0.103000                    
      -4.279833      -1.793875       6.606373       0.103000                    
      -5.051178      -1.398938       8.578102      -0.006000                    
      -5.089252      -0.320105       8.427734       0.103000                    
      -5.894428      -1.710058       9.194613       0.103000                    
      -3.508992      -1.837180       9.403011      -0.200000                    
       1.312495      -5.288433      -6.376167      -0.200000                    
       2.167288      -6.831577      -6.748814      -0.006000                    
       1.652557      -7.345509      -7.560518       0.103000                    
       3.193066      -6.616019      -7.047616       0.103000                    
       2.175535      -7.723038      -5.505600      -0.006000                    
       2.690272      -7.209099      -4.693907       0.103000                    
       1.149773      -7.938590      -5.206804       0.103000                    
       3.030328      -9.266181      -5.878247      -0.200000                    
       2.395573       9.393946      -5.252888      -0.200000                    
       3.280242       8.388266      -6.459898      -0.006000                    
       3.039953       7.336790      -6.303055       0.103000                    
       2.983122       8.682923      -7.466296       0.103000                    
       4.786403       8.597152      -6.291750      -0.006000                    
       5.026694       9.648636      -6.448596       0.103000                    
       5.083529       8.302501      -5.285364       0.103000                    
       5.671076       7.591469      -7.498768      -0.200000                    
       5.324382      -0.805216      -6.837957      -0.200000                    
       3.801088      -0.484124      -7.747552      -0.006000                    
       3.253461      -1.417067      -7.880463       0.103000                    
       3.186344       0.221975      -7.189469       0.103000                    
       4.139999       0.107176      -9.117168      -0.006000                    
       4.687626       1.040118      -8.984258       0.103000                    
       4.754745      -0.598914      -9.675253       0.103000                    
       2.616711       0.428275     -10.026773      -0.200000                    
      -6.137377      -6.485263      -2.993993      -0.200000                    
      -7.139801      -6.218135      -4.468692      -0.006000                    
      -7.136539      -5.158419      -4.723474       0.103000                    
      -6.727076      -6.792677      -5.297845       0.103000                    
      -8.575364      -6.672728      -4.198669      -0.006000                    
      -8.578620      -7.732442      -3.943874       0.103000                    
      -8.988077      -6.098177      -3.369512       0.103000                    
      -9.577786      -6.405601      -5.673368      -0.200000                    
      -7.306809       8.798343      -3.246830      -0.200000                    
      -6.399281       8.795063      -4.804802      -0.006000                    
      -7.052462       9.138825      -5.606771       0.103000                    
      -5.539337       9.460075      -4.726031       0.103000                    
      -5.918971       7.375500      -5.112175      -0.006000                    
      -5.265803       7.031741      -4.310202       0.103000                    
      -6.778920       6.710489      -5.190937       0.103000                    
      -5.011451       7.372221      -6.670150      -0.200000                    
      -3.771956       9.675060      -2.918688      -0.200000                    
      -4.783213      10.453262      -1.644875      -0.006000                    
      -5.364777      11.262474      -2.086332       0.103000                    
      -5.457993       9.713655      -1.214099       0.103000                    
      -3.877503      11.016398      -0.548106      -0.006000                    
      -3.295931      10.207186      -0.106644       0.103000                    
      -3.202713      11.756015      -0.978880       0.103000                    
      -4.888749      11.794611       0.725709      -0.200000                    
      10.292454      -0.737050       0.733329      -0.200000                    
      10.685169      -2.480307       0.973540      -0.006000                    
       9.782438      -3.077419       0.845088       0.103000                    
      11.432223      -2.788816       0.242349       0.103000                    
      11.237283      -2.688838       2.384943      -0.006000                    
      12.140013      -2.091737       2.513397       0.103000                    
      10.490227      -2.380339       3.116135       0.103000                    
      11.629998      -4.432095       2.625154      -0.200000                    
      -7.608154      -2.539469      -4.910254      -0.200000                    
      -7.547739      -1.128267      -6.030847      -0.006000                    
      -6.519650      -0.776980      -6.118019       0.103000                    
      -7.914095      -1.427724      -7.012719       0.103000                    
      -8.425782      -0.002591      -5.481069      -0.006000                    
      -9.453867      -0.353881      -5.393906       0.103000                    
      -8.059427       0.296866      -4.499197       0.103000                    
      -8.365363       1.408607      -6.601672      -0.200000                    
      -7.895658       7.216405       0.907525      -0.200000                    
      -9.110048       6.838614      -0.370557      -0.006000                    
     -10.082895       6.669512       0.090873       0.103000                    
      -9.178043       7.674991      -1.066104       0.103000                    
      -8.679532       5.580597      -1.127141      -0.006000                    
      -7.706694       5.749700      -1.588576       0.103000                    
      -8.611546       4.744221      -0.431600       0.103000                    
      -9.893923       5.202806      -2.405223      -0.200000                    
       0.288140       1.386023      -7.602631      -0.200000                    