%nprocshared=4                                                                       
%mem=8GB                                                                             
#P pop=chelpg cam-b3lyp/gen scf=qc int=ultrafine charge td(nstates=10)               
                                                                                     
pNA CAM-B3LYP def2-TZVPD Single point - solvent def2-SV(P)                           
                                                                                     
0 1                                                                                  
 C       1.389235       0.000000      -0.000000                                 
 C       0.000000       0.000000      -0.000000                                 
 C      -0.711164       1.193419       0.000000                                 
 C      -0.034074       2.386367       0.000141                                 
 C       1.370482       2.412065       0.000933                                 
 C       2.067428       1.192342       0.000144                                 
 H       1.924301      -0.937208       0.000967                                 
 H      -1.790186       1.173300       0.000962                                 
 H      -0.583208       3.318526      -0.000772                                 
 H       3.149318       1.197759      -0.000767                                 
 N      -0.711160      -1.251627       0.001756                                 
 O      -1.932441      -1.229701       0.002542                                 
 O      -0.067142      -2.289538       0.002483                                 
 N       2.040236       3.590780      -0.024683                                 
 H       1.546357       4.451509       0.132529                                 
 H       3.032458       3.607145       0.132525                                 
Cl       0.806214       6.760453      -1.302848                                 
 C       2.119624       6.083158      -2.335859                                 
 H       3.051723       6.609404      -2.130370                                 
 H       2.244693       5.022954      -2.116285                                 
 C       1.750279       6.257957      -3.810091                                 
 H       0.818174       5.731718      -4.015577                                 
 H       1.625207       7.318167      -4.029654                                 
Cl       3.063697       5.580667      -4.843102                                 
Cl       1.233019      -0.754215       3.771649                                 
 C      -0.521724      -1.085196       3.522251                                 
 H      -1.083068      -0.745601       4.392617                                 
 H      -0.869360      -0.554777       2.635834                                 
 C      -0.735309      -2.588167       3.333000                                 
 H      -0.173971      -2.927752       2.462627                                 
 H      -0.387678      -3.118578       4.219420                                 
Cl      -2.490058      -2.919137       3.083594                                 
Cl      -1.755815       5.233042       5.695248                                 
 C      -1.007403       5.845499       4.173475                                 
 H      -1.725410       5.765469       3.357387                                 
 H      -0.720016       6.888717       4.303887                                 
 C       0.232967       5.012783       3.844183                                 
 H       0.950974       5.092813       4.660272                                 
 H      -0.054418       3.969562       3.713781                                 
Cl       0.981379       5.625239       2.322410                                 
Cl      -6.308303      -3.039001      -2.323099                                 
 C      -5.892896      -1.295481      -2.519186                                 
 H      -5.398738      -1.145168      -3.478954                                 
 H      -6.803859      -0.698249      -2.481830                                 
 C      -4.954705      -0.864704      -1.390216                                 
 H      -5.448863      -1.015017      -0.430447                                 
 H      -4.043741      -1.461935      -1.427571                                 
Cl      -4.539298       0.878817      -1.586303                                 
Cl       6.630518       3.491236      -1.410259                                 
 C       5.883024       2.198213      -2.420333                                 
 H       6.592281       1.380440      -2.547340                                 
 H       4.984086       1.826722      -1.928545                                 
 C       5.514625       2.770416      -3.790457                                 
 H       4.805369       3.588189      -3.663450                                 
 H       6.413566       3.141905      -4.282235                                 
Cl       4.767131       1.477393      -4.800530                                 
                                                                                
       4.080894       3.425210       4.617689      -0.200000                    
       4.169061       2.475019       3.087907      -0.006000                    
       3.160704       2.270027       2.728591       0.103000                    
       4.713837       3.046003       2.336135       0.103000                    
       4.895100       1.154051       3.349231      -0.006000                    
       5.903456       1.359045       3.708538       0.103000                    
       4.350329       0.583059       4.101000       0.103000                    
       4.983274       0.203865       1.819450      -0.200000                    
       1.247894      -6.022396       1.551602      -0.200000                    
       2.429259      -4.682062       1.794123      -0.006000                    
       1.968092      -3.735543       1.512384       0.103000                    
       2.726005      -4.644173       2.842201       0.103000                    
       3.663429      -4.926412       0.923771      -0.006000                    
       4.124596      -5.872929       1.205510       0.103000                    
       3.366679      -4.964294      -0.124294       0.103000                    
       4.844793      -3.586077       1.166292      -0.200000                    
       1.610785      -5.137137      -2.576336      -0.200000                    
       2.294305      -4.033787      -3.827858      -0.006000                    
       2.900223      -4.608963      -4.527832       0.103000                    
       1.481377      -3.546406      -4.365950       0.103000                    
       3.165537      -2.973420      -3.151843      -0.006000                    
       2.559627      -2.398237      -2.451868       0.103000                    
       3.978465      -3.460801      -2.613750       0.103000                    
       3.849065      -1.870063      -4.403364      -0.200000                    
       7.802038       7.002146       2.795727      -0.200000                    
       6.152953       7.340623       2.150074      -0.006000                    
       5.508898       7.683743       2.959637       0.103000                    
       6.214272       8.111969       1.382481       0.103000                    
       5.570898       6.062808       1.542793      -0.006000                    
       6.214948       5.719699       0.733222       0.103000                    
       5.509579       5.291464       2.310376       0.103000                    
       3.921808       6.401292       0.897142      -0.200000                    
      -2.875415       5.909606       0.881145      -0.200000                    
      -4.166148       4.657832       0.747390      -0.006000                    
      -4.882895       4.954993      -0.018076       0.103000                    
      -3.718803       3.701983       0.475086       0.103000                    
      -4.883964       4.519905       2.091292      -0.006000                    
      -4.167210       4.222751       2.856749       0.103000                    
      -5.331309       5.475755       2.363586       0.103000                    
      -6.174697       3.268130       1.957537      -0.200000                    
      -4.592161       2.514750      -4.555920      -0.200000                    
      -3.616194       3.968767      -4.126693      -0.006000                    
      -3.012618       4.267470      -4.983686       0.103000                    
      -4.282856       4.785183      -3.849265       0.103000                    
      -2.698744       3.637384      -2.948187      -0.006000                    
      -3.302328       3.338676      -2.091195       0.103000                    
      -2.032092       2.820965      -3.225626       0.103000                    
      -1.722787       5.091398      -2.518971      -0.200000                    
       0.936509       2.168670      -3.456258      -0.200000                    
       0.958743       1.074533      -4.889180      -0.006000                    
       1.478332       1.564346      -5.712610       0.103000                    
       1.475006       0.149600      -4.632374       0.103000                    
      -0.477199       0.756435      -5.310217      -0.006000                    
      -0.996787       0.266620      -4.486777       0.103000                    
      -0.993452       1.681371      -5.567013       0.103000                    
      -0.454958      -0.337713      -6.743132      -0.200000                    
      -2.705262      -6.662601      -0.973698      -0.200000                    
      -3.832748      -5.290271      -0.663326      -0.006000                    
      -3.394760      -4.367017      -1.042411       0.103000                    
      -4.780504      -5.477093      -1.168118       0.103000                    
      -4.074335      -5.159129       0.841579      -0.006000                    
      -4.512326      -6.082396       1.220661       0.103000                    
      -3.126587      -4.972312       1.346371       0.103000                    
      -5.201829      -3.786804       1.151951      -0.200000                    
      -4.278510       0.118952       2.452124      -0.200000                    
      -5.467821      -0.127845       3.784628      -0.006000                    
      -5.113205       0.372356       4.685743       0.103000                    
      -6.431954       0.288542       3.493180       0.103000                    
      -5.621732      -1.624792       4.059988      -0.006000                    
      -5.976352      -2.124985       3.158875       0.103000                    
      -4.657598      -2.041180       4.351436       0.103000                    
      -6.811042      -1.871589       5.392492      -0.200000                    
      -1.879917      -2.738156      -3.975027      -0.200000                    
      -3.113171      -3.478841      -5.061907      -0.006000                    
      -4.110456      -3.190086      -4.730220       0.103000                    
      -2.954425      -3.130619      -6.082460       0.103000                    
      -2.982799      -5.002431      -5.017446      -0.006000                    
      -1.985519      -5.291178      -5.349130       0.103000                    
      -3.141547      -5.350651      -3.996903       0.103000                    
      -4.216060      -5.743105      -6.104333      -0.200000                    
       9.015733      -1.775932       1.101099      -0.200000                    
       7.780806      -1.778473      -0.212594      -0.006000                    
       6.787164      -1.884011       0.222667       0.103000                    
       7.837413      -0.841553      -0.766610       0.103000                    
       8.048151      -2.948292      -1.161482      -0.006000                    
       9.041805      -2.842756      -1.596746       0.103000                    
       7.991556      -3.885212      -0.607479       0.103000                    
       6.813237      -2.950835      -2.475178      -0.200000                    
       1.357525       9.744801       1.153110      -0.200000                    
       0.826338       9.428679       2.846859      -0.006000                    
      -0.047211      10.039623       3.073974       0.103000                    
       0.571540       8.374716       2.957283       0.103000                    
       1.960006       9.782423       3.811253      -0.006000                    
       2.833556       9.171478       3.584148       0.103000                    
       2.214805      10.836386       3.700840       0.103000                    
       1.428810       9.466297       5.505002      -0.200000                    
       2.760382      11.602820      -1.518816      -0.200000                    
       4.156995      10.595087      -0.985032      -0.006000                    
       5.079520      11.165067      -1.094582       0.103000                    
       4.024746      10.314793       0.059927       0.103000                    
       4.233115       9.332450      -1.845421      -0.006000                    
       3.310589       8.762470      -1.735870       0.103000                    
       4.365355       9.612740      -2.890379       0.103000                    
       5.629723       8.324724      -1.311633      -0.200000                    
       1.197293       0.932166       8.532619      -0.200000                    
      -0.153439       0.894739       7.338900      -0.006000                    
      -0.041492       0.025971       6.690316       0.103000                    
      -1.104458       0.833466       7.867795       0.103000                    
      -0.122048       2.169186       6.493235      -0.006000                    
      -0.233995       3.037954       7.141819       0.103000                    
       0.828979       2.230464       5.964340       0.103000                    
      -1.472780       2.131759       5.299514      -0.200000                    
      -4.935348       7.527116      -3.372491      -0.200000                    
      -4.962853       7.842758      -1.597530      -0.006000                    
      -4.274098       7.162615      -1.096595       0.103000                    
      -4.660364       8.872309      -1.406614       0.103000                    
      -6.378425       7.620059      -1.061897      -0.006000                    
      -7.067180       8.300203      -1.562832       0.103000                    
      -6.680906       6.590514      -1.252813       0.103000                    
      -6.405931       7.935701       0.713064      -0.200000                    
       4.160965      -6.267603       4.941089      -0.200000                    
       3.539328      -5.249961       6.293485      -0.006000                    
       2.730349      -5.774889       6.801330       0.103000                    
       4.345174      -5.053024       7.000426       0.103000                    
       3.015811      -3.925088       5.735779      -0.006000                    
       3.824783      -3.400150       5.227928       0.103000                    
       2.209958      -4.122015       5.028831       0.103000                    
       2.394166      -2.907436       7.088168      -0.200000                    
       6.441164      -7.366077       0.402521      -0.200000                    
       6.449283      -7.232998      -1.395561      -0.006000                    
       7.450871      -6.970896      -1.736220       0.103000                    
       6.154910      -8.187314      -1.832110       0.103000                    
       5.462856      -6.147738      -1.831029      -0.006000                    
       4.461278      -6.409839      -1.490361       0.103000                    
       5.757237      -5.193418      -1.394480       0.103000                    
       5.470975      -6.014662      -3.629102      -0.200000                    
      -9.494654      -1.686320      -1.648951      -0.200000                    
      -9.204546      -0.196349      -0.675955      -0.006000                    
      -8.432633       0.406001      -1.154778       0.103000                    
     -10.127092       0.380298      -0.610244       0.103000                    
      -8.746608      -0.586890       0.730489      -0.006000                    
      -9.518521      -1.189240       1.209312       0.103000                    
      -7.824062      -1.163536       0.664778       0.103000                    
      -8.456500       0.903081       1.703484      -0.200000                    
      -3.280218       9.969723       0.749851      -0.200000                    
      -3.816117       9.914961       2.470509      -0.006000                    
      -3.184613      10.571426       3.069057       0.103000                    
      -4.852425      10.245576       2.539246       0.103000                    
      -3.702675       8.482188       2.994590      -0.006000                    
      -4.334173       7.825731       2.396033       0.103000                    
      -2.666360       8.151580       2.925854       0.103000                    
      -4.238571       8.427441       4.715251      -0.200000                    
       7.019164      -4.969555       5.105336      -0.200000                    
       7.615687      -3.330837       5.563220      -0.006000                    
       7.160285      -3.028502       6.506190       0.103000                    
       8.699603      -3.356527       5.674680       0.103000                    
       7.239532      -2.327705       4.471148      -0.006000                    
       7.694924      -2.630044       3.528168       0.103000                    
       6.155615      -2.302013       4.359678       0.103000                    
       7.836056      -0.688987       4.929032      -0.200000                    
       6.267451       7.081726       6.172124      -0.200000                    
       4.795504       7.249995       7.199739      -0.006000                    
       4.964445       6.761978       8.159537       0.103000                    
       4.583896       8.306862       7.361497       0.103000                    
       3.605385       6.593929       6.497180      -0.006000                    
       3.436449       7.081938       5.537379       0.103000                    
       3.816998       5.537054       6.335420       0.103000                    
       2.133438       6.762197       7.524795      -0.200000                    
      -6.686069      -7.025526       3.123582      -0.200000                    
      -7.125466      -5.306886       3.446349      -0.006000                    
      -7.522864      -5.216921       4.457263       0.103000                    
      -6.239262      -4.680229       3.346940       0.103000                    
      -8.185157      -4.853917       2.440233      -0.006000                    
      -7.787755      -4.943891       1.429318       0.103000                    
      -9.071356      -5.480582       2.539640       0.103000                    
      -8.624550      -3.135286       2.762998      -0.200000                    
      13.075378       3.188970      -0.476764      -0.200000                    
      12.030282       1.996598      -1.335148      -0.006000                    
      12.104316       2.156257      -2.410760       0.103000                    
      12.358624       0.985606      -1.094221       0.103000                    
      10.577593       2.179619      -0.891791      -0.006000                    
      10.503561       2.019959       0.183831       0.103000                    
      10.249244       3.190604      -1.132708       0.103000                    
       9.532491       0.987240      -1.750165      -0.200000                    
      10.009461       3.844364       6.552174      -0.200000                    
       9.300875       3.657841       4.904727      -0.006000                    
       8.224637       3.506567       4.986857       0.103000                    
       9.498159       4.556406       4.320232       0.103000                    
       9.933605       2.449923       4.211239      -0.006000                    
      11.009851       2.601202       4.129109       0.103000                    
       9.736327       1.551363       4.795734       0.103000                    
       9.225027       2.263406       2.563792      -0.200000                    
      -3.146368      -7.665191       2.864472      -0.200000                    
      -3.653980      -9.394041       2.930078      -0.006000                    
      -3.708519      -9.717769       3.969383       0.103000                    
      -4.632803      -9.503520       2.463327       0.103000                    
      -2.633682     -10.253804       2.181607      -0.006000                    
      -2.579136      -9.930071       1.142303       0.103000                    
      -1.654851     -10.144320       2.648358       0.103000                    
      -3.141287     -11.982649       2.247213      -0.200000                    
      -1.522959       6.178102      -6.271142      -0.200000                    
      -0.117106       6.636123      -7.302924      -0.006000                    
       0.113929       7.690983      -7.155220       0.103000                    
       0.747724       6.032540      -7.027824       0.103000                    
      -0.462334       6.391253      -8.773051      -0.006000                    
      -0.693363       5.336386      -8.920758       0.103000                    
      -1.327165       6.994839      -9.048160       0.103000                    
       0.943518       6.849276      -9.804844      -0.200000                    
      -6.873856      -6.235604       7.038229      -0.200000                    
      -5.099959      -5.915308       7.078082      -0.006000                    
      -4.871253      -5.237773       7.900602       0.103000                    
      -4.564163      -6.853716       7.220347       0.103000                    
      -4.667247      -5.276899       5.756902      -0.006000                    
      -4.895953      -5.954435       4.934382       0.103000                    
      -5.203028      -4.338494       5.614635       0.103000                    
      -2.893335      -4.956605       5.796752      -0.200000                    
      11.501359       5.995207       1.810688      -0.200000                    
      11.570074       6.403243       0.055754      -0.006000                    
      12.460170       6.999589      -0.144288       0.103000                    
      11.608643       5.484787      -0.529828       0.103000                    
      10.324111       7.202116      -0.331182      -0.006000                    
       9.434003       6.605772      -0.131137       0.103000                    
      10.285543       8.120569       0.254410       0.103000                    
      10.392817       7.610146      -2.086117      -0.200000                    
       9.231194      -3.733870      -5.463987      -0.200000                    
       9.043056      -2.038560      -6.048233      -0.006000                    
       9.788832      -1.833802      -6.816232       0.103000                    
       8.045129      -1.906667      -6.466163       0.103000                    
       9.237419      -1.071676      -4.878766      -0.006000                    
       8.491636      -1.276423      -4.110774       0.103000                    
      10.235353      -1.203563      -4.460835       0.103000                    
       9.049278       0.623636      -5.463021      -0.200000                    
      -8.144032      -1.399289      -8.529949      -0.200000                    
      -6.549540      -0.677733      -8.096616      -0.006000                    
      -6.009357      -0.416483      -9.006483       0.103000                    
      -6.707037       0.218833      -7.497180       0.103000                    
      -5.732865      -1.691113      -7.292535      -0.006000                    
      -6.273046      -1.952365      -6.382658       0.103000                    
      -5.575375      -2.587687      -7.891962       0.103000                    
      -4.138378      -0.969549      -6.859198      -0.200000                    
      -5.900191      -1.439542       9.797371      -0.200000                    
      -4.292761      -2.013574       9.216354      -0.006000                    
      -3.532174      -1.779621       9.961152       0.103000                    
      -4.327099      -3.091402       9.057967       0.103000                    
      -3.947671      -1.315910       7.899354      -0.006000                    
      -4.708271      -1.549860       7.154557       0.103000                    
      -3.913347      -0.238080       8.057742       0.103000                    
      -2.340254      -1.889939       7.318339      -0.200000                    
       3.015806      -0.850334      -8.107895      -0.200000                    
       2.058172      -2.377813      -8.081375      -0.006000                    
       1.343174      -2.344447      -7.259433       0.103000                    
       1.523063      -2.487875      -9.024480       0.103000                    
       3.000723      -3.567304      -7.888676      -0.006000                    
       3.715722      -3.600670      -8.710617       0.103000                    
       3.535833      -3.457242      -6.945571       0.103000                    
       2.043090      -5.094782      -7.862155      -0.200000                    
      -1.575790      -8.625460      -6.587721      -0.200000                    
       0.046436      -7.883414      -6.325675      -0.006000                    
       0.510240      -7.673624      -7.289439       0.103000                    
      -0.064660      -6.954868      -5.765859       0.103000                    
       0.928653      -8.852013      -5.535861      -0.006000                    
       0.464850      -9.061805      -4.572097       0.103000                    
       1.039749      -9.780558      -6.095687       0.103000                    
       2.550880      -8.109969      -5.273815      -0.200000                    
       0.805520     -12.477332      -0.963966      -0.200000                    
       2.203699     -11.339403      -0.996925      -0.006000                    
       2.552980     -11.163031       0.020309       0.103000                    
       3.010518     -11.771819      -1.588528       0.103000                    
       1.767339     -10.013393      -1.622792      -0.006000                    
       1.418049     -10.189772      -2.640025       0.103000                    
       0.960511      -9.580982      -1.031188       0.103000                    
       3.165522      -8.875470      -1.655763      -0.200000                    
      11.465188       3.190343      -4.779578      -0.200000                    
       9.934015       4.135846      -4.668296      -0.006000                    
       9.239165       3.625441      -4.001503       0.103000                    
      10.148489       5.130502      -4.277674       0.103000                    
       9.308352       4.258685      -6.058903      -0.006000                    
      10.003193       4.769084      -6.725696       0.103000                    
       9.093870       3.264021      -6.449516       0.103000                    
       7.777175       5.204194      -5.947610      -0.200000                    
      -0.200214      13.936051      -4.342168      -0.200000                    
      -0.181790      12.360321      -5.218378      -0.006000                    
      -1.185007      12.132939      -5.578683       0.103000                    
       0.502851      12.422615      -6.064140       0.103000                    
       0.281249      11.254074      -4.268561      -0.006000                    
       1.284459      11.481462      -3.908253       0.103000                    
      -0.403393      11.191781      -3.422799       0.103000                    
       0.299672       9.678344      -5.144771      -0.200000                    
       5.174489      -0.673720       7.934842      -0.200000                    
       5.946228       0.952842       8.032368      -0.006000                    
       6.946967       0.855822       8.453148       0.103000                    
       6.012006       1.384513       7.033751       0.103000                    
       5.103728       1.864204       8.926782      -0.006000                    
       4.102997       1.961230       8.506001       0.103000                    
       5.037957       1.432539       9.925397       0.103000                    
       5.875476       3.490771       9.024316      -0.200000                    
      -8.776029       4.489733       0.069840      -0.200000                    
      -9.440707       4.672204       1.735909      -0.006000                    
      -8.781226       4.174754       2.446950       0.103000                    
      -9.511681       5.730895       1.985110       0.103000                    
     -10.831723       4.038898       1.802175      -0.006000                    
     -11.491206       4.536350       1.091125       0.103000                    
     -10.760751       2.980208       1.552975       0.103000                    
     -11.496403       4.221369       3.468244      -0.200000                    
       6.890622      14.795555       2.297376      -0.200000                    